--------------------------------------------------------------------------
WARNING: Open MPI tried to bind a process but failed.  This is a
warning only; your job will continue, though performance may
be degraded.

  Local host:        3f2c2428df7f
  Application name:  /home/ubuntu/apps/qe-7.4.1-gpu/bin/pw.x
  Error message:     failed to bind memory
  Location:          ../../../../../orte/mca/rtc/hwloc/rtc_hwloc.c:447

--------------------------------------------------------------------------

     Program PWSCF v.7.4.1 starts on 13Sep2026 at  2:49:21 

     This program is part of the open-source Quantum ESPRESSO suite
     for quantum simulation of materials; please cite
         "P. Giannozzi et al., J. Phys.:Condens. Matter 21 395502 (2009);
         "P. Giannozzi et al., J. Phys.:Condens. Matter 29 465901 (2017);
         "P. Giannozzi et al., J. Chem. Phys. 152 154105 (2020);
          URL http://www.quantum-espresso.org", 
     in publications or presentations arising from this work. More details at
     http://www.quantum-espresso.org/quote

     Parallel version (MPI & OpenMP), running on      16 processor cores
     Number of MPI processes:                 1
     Threads/MPI process:                    16

     MPI processes distributed on     1 nodes
     75760 MiB available memory on the printing compute node when the environment starts
 
     Reading input from scf.in

     Current dimensions of program PWSCF are:
     Max number of different atomic species (ntypx) = 10
     Max number of k-points (npk) =  40000
     Max angular momentum in pseudopotentials (lmaxx) =  4
 
     Subspace diagonalization in iterative solution of the eigenvalue problem:
     a serial algorithm will be used

 
     G-vector sticks info
     --------------------
     sticks:   dense  smooth     PW     G-vecs:    dense   smooth      PW
     Sum       17297    8669   2313              1712245   605941   83599
 
     Using Slab Decomposition
 


     bravais-lattice index     =            0
     lattice parameter (alat)  =      21.2845  a.u.
     unit-cell volume          =    9642.4936 (a.u.)^3
     number of atoms/cell      =           52
     number of atomic types    =            4
     number of electrons       =       240.00
     number of Kohn-Sham states=          144
     kinetic-energy cutoff     =      60.0000  Ry
     charge density cutoff     =     480.0000  Ry
     scf convergence threshold =      1.0E-09
     mixing beta               =       0.3000
     number of iterations used =            8  plain     mixing
     Exchange-correlation=  SLA  PW   PBX  PBC
                           (   1   4   3   4   0   0   0)

     GPU acceleration is ACTIVE.  1 visible GPUs per MPI rank


     celldm(1)=  21.284483  celldm(2)=   0.000000  celldm(3)=   0.000000
     celldm(4)=   0.000000  celldm(5)=   0.000000  celldm(6)=   0.000000

     crystal axes: (cart. coord. in units of alat)
               a(1) = (   1.000000   0.000000   0.000000 )  
               a(2) = (   0.000000   1.000000   0.000000 )  
               a(3) = (   0.000000   0.000000   1.000000 )  

     reciprocal axes: (cart. coord. in units 2 pi/alat)
               b(1) = (  1.000000 -0.000000 -0.000000 )  
               b(2) = ( -0.000000  1.000000 -0.000000 )  
               b(3) = ( -0.000000 -0.000000  1.000000 )  


     PseudoPot. # 1 for Cl read from file:
     /home/ubuntu/work/pseudo/cl_pbe_v1_4_uspp_F.UPF
     MD5 check sum: fc6f6913ecf08c9257cb748ef0700058
     Pseudo is Ultrasoft + core correction, Zval =  7.0
     Generated by new atomic code, or converted to UPF format
     Using radial grid of  909 points,  6 beta functions with: 
                l(1) =   0
                l(2) =   0
                l(3) =   1
                l(4) =   1
                l(5) =   2
                l(6) =   2
     Q(r) pseudized with  8 coefficients,  rinner =    1.300   1.300   1.300
                                                       1.300   1.300

     PseudoPot. # 2 for Li read from file:
     /home/ubuntu/work/pseudo/li_pbe_v1_4_uspp_F.UPF
     MD5 check sum: e912e257baa3777c20ea3d68f190483c
     Pseudo is Ultrasoft, Zval =  3.0
     Generated by new atomic code, or converted to UPF format
     Using radial grid of  751 points,  5 beta functions with: 
                l(1) =   0
                l(2) =   0
                l(3) =   0
                l(4) =   1
                l(5) =   1
     Q(r) pseudized with 10 coefficients,  rinner =    1.150   1.150   1.150


     PseudoPot. # 3 for P  read from file:
     /home/ubuntu/work/pseudo/P_pbe-n-rrkjus_psl_1_0_0.UPF
     MD5 check sum: 8b930f418f0a4573dca56cd030ffe088
     Pseudo is Ultrasoft + core correction, Zval =  5.0
     Generated using "atomic" code by A. Dal Corso  v.5.1
     Using radial grid of 1147 points,  6 beta functions with: 
                l(1) =   0
                l(2) =   0
                l(3) =   1
                l(4) =   1
                l(5) =   2
                l(6) =   2
     Q(r) pseudized with 0 coefficients 


     PseudoPot. # 4 for S  read from file:
     /home/ubuntu/work/pseudo/s_pbe_v1_4_uspp_F.UPF
     MD5 check sum: 88d86576ff6df21479756cfb9bdac1df
     Pseudo is Ultrasoft + core correction, Zval =  6.0
     Generated by new atomic code, or converted to UPF format
     Using radial grid of  907 points,  6 beta functions with: 
                l(1) =   0
                l(2) =   0
                l(3) =   1
                l(4) =   1
                l(5) =   2
                l(6) =   2
     Q(r) pseudized with  8 coefficients,  rinner =    1.300   1.300   1.300
                                                       1.300   1.300

     atomic species   valence    mass     pseudopotential
     Cl                7.00    35.45300     Cl( 1.00)
     Li                3.00     6.94100     Li( 1.00)
     P                 5.00    30.97400     P ( 1.00)
     S                 6.00    32.06500     S ( 1.00)

     No symmetry found



   Cartesian axes

     site n.     atom                  positions (alat units)
         1        Li     tau(   1) = (   0.2499772   0.2499774   0.9686314  )
         2        Li     tau(   2) = (   0.7499766   0.7499770   0.9686299  )
         3        Li     tau(   3) = (   0.7500055   0.2499976   0.0313722  )
         4        Li     tau(   4) = (   0.2500026   0.7500003   0.0313708  )
         5        Li     tau(   5) = (   0.9686297   0.2499805   0.2499796  )
         6        Li     tau(   6) = (   0.9686308   0.7499820   0.7499810  )
         7        Li     tau(   7) = (   0.0313716   0.7499931   0.2500095  )
         8        Li     tau(   8) = (   0.0313708   0.2499939   0.7500087  )
         9        Li     tau(   9) = (   0.2499880   0.9686324   0.2499873  )
        10        Li     tau(  10) = (   0.7499872   0.9686310   0.7499864  )
        11        Li     tau(  11) = (   0.2499936   0.0313718   0.7500082  )
        12        Li     tau(  12) = (   0.7499931   0.0313735   0.2500088  )
        13        Li     tau(  13) = (   0.2499888   0.7499908   0.4686302  )
        14        Li     tau(  14) = (   0.7499902   0.2499921   0.4686314  )
        15        Li     tau(  15) = (   0.7500187   0.7499828   0.5313709  )
        16        Li     tau(  16) = (   0.2500173   0.2499845   0.5313725  )
        17        Li     tau(  17) = (   0.2499931   0.4686311   0.7499945  )
        18        Li     tau(  18) = (   0.7499913   0.4686325   0.2499928  )
        19        Li     tau(  19) = (   0.2500143   0.5313735   0.2499868  )
        20        Li     tau(  20) = (   0.7500131   0.5313720   0.7499882  )
        21        Li     tau(  21) = (   0.4686300   0.2499820   0.7499809  )
        22        Li     tau(  22) = (   0.4686306   0.7499815   0.2499813  )
        23        Li     tau(  23) = (   0.5313717   0.7499961   0.7500069  )
        24        Li     tau(  24) = (   0.5313708   0.2499954   0.2500069  )
        25        P      tau(  25) = (   0.4999996   0.5000012   0.5000010  )
        26        P      tau(  26) = (   0.5000009   0.0000010   0.0000002  )
        27        P      tau(  27) = (   0.9999998   0.5000015   0.0000008  )
        28        P      tau(  28) = (   0.0000003   0.0000008   0.5000001  )
        29        S      tau(  29) = (   0.6040777   0.6040814   0.6040807  )
        30        S      tau(  30) = (   0.3959197   0.3959231   0.6040813  )
        31        S      tau(  31) = (   0.3959199   0.6040816   0.3959228  )
        32        S      tau(  32) = (   0.6040797   0.3959221   0.3959214  )
        33        S      tau(  33) = (   0.6040811   0.1040808   0.1040794  )
        34        S      tau(  34) = (   0.3959223   0.8959224   0.1040812  )
        35        S      tau(  35) = (   0.3959233   0.1040822   0.8959216  )
        36        S      tau(  36) = (   0.6040822   0.8959230   0.8959214  )
        37        S      tau(  37) = (   0.1040793   0.6040810   0.1040807  )
        38        S      tau(  38) = (   0.8959213   0.3959224   0.1040813  )
        39        S      tau(  39) = (   0.8959216   0.6040823   0.8959233  )
        40        S      tau(  40) = (   0.1040814   0.3959231   0.8959210  )
        41        S      tau(  41) = (   0.1040797   0.1040819   0.6040791  )
        42        S      tau(  42) = (   0.8959209   0.8959236   0.6040813  )
        43        S      tau(  43) = (   0.8959216   0.1040819   0.3959213  )
        44        S      tau(  44) = (   0.1040806   0.8959224   0.3959213  )
        45        S      tau(  45) = (   0.0000311   0.0000343   0.0000097  )
        46        S      tau(  46) = (   0.9999870   0.5000361   0.5000225  )
        47        S      tau(  47) = (   0.5000085   0.0000327   0.5000114  )
        48        S      tau(  48) = (   0.5000098   0.5000327   0.0000228  )
        49        Cl     tau(  49) = (   0.7500006   0.7500008   0.7500003  )
        50        Cl     tau(  50) = (   0.2500003   0.2500008   0.7500009  )
        51        Cl     tau(  51) = (   0.2500005   0.7500013   0.2500003  )
        52        Cl     tau(  52) = (   0.7500002   0.2500014   0.2500009  )

     number of k points=    36  Marzari-Vanderbilt smearing, width (Ry)=  0.0100
                       cart. coord. in units 2pi/alat
        k(    1) = (   0.0000000   0.0000000   0.0000000), wk =   0.0312500
        k(    2) = (  -0.0000001  -0.0000000   0.2500000), wk =   0.0625000
        k(    3) = (   0.0000001   0.0000000  -0.5000000), wk =   0.0312500
        k(    4) = (  -0.0000000   0.2500000  -0.0000000), wk =   0.0625000
        k(    5) = (  -0.0000001   0.2500000   0.2500000), wk =   0.0625000
        k(    6) = (   0.0000001   0.2500000  -0.5000000), wk =   0.0625000
        k(    7) = (   0.0000000   0.2500000  -0.2500000), wk =   0.0625000
        k(    8) = (   0.0000001  -0.5000000   0.0000000), wk =   0.0312500
        k(    9) = (   0.0000000  -0.5000000   0.2500000), wk =   0.0625000
        k(   10) = (   0.0000002  -0.5000000  -0.5000000), wk =   0.0312500
        k(   11) = (   0.2500000  -0.0000000  -0.0000001), wk =   0.0625000
        k(   12) = (   0.2499999  -0.0000000   0.2499999), wk =   0.0625000
        k(   13) = (   0.2500001   0.0000000  -0.5000000), wk =   0.0625000
        k(   14) = (   0.2500001  -0.0000000  -0.2500000), wk =   0.0625000
        k(   15) = (   0.2500000   0.2500000  -0.0000001), wk =   0.0625000
        k(   16) = (   0.2499999   0.2500000   0.2499999), wk =   0.0625000
        k(   17) = (   0.2500001   0.2500000  -0.5000001), wk =   0.0625000
        k(   18) = (   0.2500000   0.2500000  -0.2500001), wk =   0.0625000
        k(   19) = (   0.2500001  -0.5000000  -0.0000000), wk =   0.0625000
        k(   20) = (   0.2500000  -0.5000000   0.2500000), wk =   0.0625000
        k(   21) = (   0.2500002  -0.5000000  -0.5000000), wk =   0.0625000
        k(   22) = (   0.2500001  -0.5000000  -0.2500000), wk =   0.0625000
        k(   23) = (   0.2500000  -0.2500000  -0.0000000), wk =   0.0625000
        k(   24) = (   0.2500000  -0.2500000   0.2500000), wk =   0.0625000
        k(   25) = (   0.2500001  -0.2500000  -0.5000000), wk =   0.0625000
        k(   26) = (   0.2500001  -0.2500000  -0.2500000), wk =   0.0625000
        k(   27) = (  -0.5000000   0.0000001   0.0000001), wk =   0.0312500
        k(   28) = (  -0.5000001   0.0000000   0.2500001), wk =   0.0625000
        k(   29) = (  -0.4999999   0.0000001  -0.4999999), wk =   0.0312500
        k(   30) = (  -0.5000000   0.2500000   0.0000001), wk =   0.0625000
        k(   31) = (  -0.5000001   0.2500000   0.2500001), wk =   0.0625000
        k(   32) = (  -0.4999999   0.2500001  -0.4999999), wk =   0.0625000
        k(   33) = (  -0.5000000   0.2500001  -0.2499999), wk =   0.0625000
        k(   34) = (  -0.4999999  -0.4999999   0.0000001), wk =   0.0312500
        k(   35) = (  -0.5000000  -0.5000000   0.2500001), wk =   0.0625000
        k(   36) = (  -0.4999998  -0.4999999  -0.4999999), wk =   0.0312500

     Dense  grid:  1712245 G-vectors     FFT dimensions: ( 150, 150, 150)

     Smooth grid:   605941 G-vectors     FFT dimensions: ( 108, 108, 108)

     Estimated max dynamical RAM per process >      14.44 GB

     Initial potential from superposition of free atoms

     starting charge     229.1808, renormalised to     240.0000

     negative rho (up, down):  6.172E-02 0.000E+00
     Starting wfcs are  232 randomized atomic wfcs

     total cpu time spent up to now is       18.7 secs

     Self-consistent Calculation

     iteration #  1     ecut=    60.00 Ry     beta= 0.30
     Davidson diagonalization with overlap
     ethr =  1.00E-02,  avg # of iterations =  2.8

     negative rho (up, down):  6.110E-02 0.000E+00

     total cpu time spent up to now is       42.7 secs

     total energy              =   -1020.10326299 Ry
     estimated scf accuracy    <       4.68473444 Ry

     iteration #  2     ecut=    60.00 Ry     beta= 0.30
     Davidson diagonalization with overlap
     ethr =  1.95E-03,  avg # of iterations =  4.0
     Minimization algorithm failed to find Fermi energy: reverting to bisection
     Possible cause: smearing is larger than the electronic band-gap.

     negative rho (up, down):  6.003E-02 0.000E+00

     total cpu time spent up to now is       68.4 secs

     total energy              =   -1021.06564448 Ry
     estimated scf accuracy    <       0.53447088 Ry

     iteration #  3     ecut=    60.00 Ry     beta= 0.30
     Davidson diagonalization with overlap
     c_bands:  1 eigenvalues not converged
     c_bands:  4 eigenvalues not converged
     c_bands:  1 eigenvalues not converged
     ethr =  2.23E-04,  avg # of iterations = 13.3

     negative rho (up, down):  5.938E-02 0.000E+00

     total cpu time spent up to now is      104.8 secs

     WARNING: integrated charge=   240.00008548, expected=   240.00000000

     total energy              =   -1021.21699093 Ry
     estimated scf accuracy    <       0.36255807 Ry

     iteration #  4     ecut=    60.00 Ry     beta= 0.30
     Davidson diagonalization with overlap
     ethr =  1.51E-04,  avg # of iterations =  2.9

     negative rho (up, down):  5.750E-02 0.000E+00

     total cpu time spent up to now is      127.2 secs

     WARNING: integrated charge=   240.00222227, expected=   240.00000000

     total energy              =   -1021.17248197 Ry
     estimated scf accuracy    <       0.13802682 Ry

     iteration #  5     ecut=    60.00 Ry     beta= 0.30
     Davidson diagonalization with overlap
     c_bands:  2 eigenvalues not converged
     ethr =  5.75E-05,  avg # of iterations =  8.8

     negative rho (up, down):  5.760E-02 0.000E+00

     total cpu time spent up to now is      157.2 secs

     WARNING: integrated charge=   240.00412897, expected=   240.00000000

     total energy              =   -1021.15797019 Ry
     estimated scf accuracy    <       0.12723372 Ry

     iteration #  6     ecut=    60.00 Ry     beta= 0.30
     Davidson diagonalization with overlap
     c_bands:  2 eigenvalues not converged
     c_bands:  1 eigenvalues not converged
     c_bands:  1 eigenvalues not converged
     c_bands:  1 eigenvalues not converged
     c_bands:  2 eigenvalues not converged
     c_bands:  1 eigenvalues not converged
     c_bands:  1 eigenvalues not converged
     c_bands:  1 eigenvalues not converged
     ethr =  5.30E-05,  avg # of iterations = 15.5

     negative rho (up, down):  5.765E-02 0.000E+00

     total cpu time spent up to now is      189.3 secs

     WARNING: integrated charge=   240.00471293, expected=   240.00000000

     total energy              =   -1021.20370984 Ry
     estimated scf accuracy    <       0.03698571 Ry

     iteration #  7     ecut=    60.00 Ry     beta= 0.30
     Davidson diagonalization with overlap
     c_bands:  1 eigenvalues not converged
     c_bands:  1 eigenvalues not converged
     c_bands:  1 eigenvalues not converged
     c_bands:  1 eigenvalues not converged
     c_bands:  4 eigenvalues not converged
     ethr =  1.54E-05,  avg # of iterations =  7.9

     negative rho (up, down):  5.755E-02 0.000E+00

     total cpu time spent up to now is      214.2 secs

     WARNING: integrated charge=   240.00491928, expected=   240.00000000

     total energy              =   -1021.20134696 Ry
     estimated scf accuracy    <       0.01218740 Ry

     iteration #  8     ecut=    60.00 Ry     beta= 0.30
     Davidson diagonalization with overlap
     c_bands:  1 eigenvalues not converged
     c_bands:  2 eigenvalues not converged
     c_bands:  3 eigenvalues not converged
     c_bands:  1 eigenvalues not converged
     c_bands:  1 eigenvalues not converged
     c_bands:  1 eigenvalues not converged
     c_bands:  4 eigenvalues not converged
     c_bands:  1 eigenvalues not converged
     c_bands:  2 eigenvalues not converged
     c_bands:  1 eigenvalues not converged
     c_bands:  2 eigenvalues not converged
     c_bands:  2 eigenvalues not converged
     c_bands:  1 eigenvalues not converged
     c_bands:  1 eigenvalues not converged
     ethr =  5.08E-06,  avg # of iterations = 13.9

     negative rho (up, down):  5.749E-02 0.000E+00

     total cpu time spent up to now is      244.9 secs

     WARNING: integrated charge=   240.00518772, expected=   240.00000000

     total energy              =   -1021.20416030 Ry
     estimated scf accuracy    <       0.00015905 Ry

     iteration #  9     ecut=    60.00 Ry     beta= 0.30
     Davidson diagonalization with overlap
     c_bands:  2 eigenvalues not converged
     c_bands:  1 eigenvalues not converged
     c_bands:  2 eigenvalues not converged
     c_bands:  3 eigenvalues not converged
     c_bands:  1 eigenvalues not converged
     c_bands:  2 eigenvalues not converged
     c_bands:  1 eigenvalues not converged
     ethr =  6.63E-08,  avg # of iterations = 12.6

     negative rho (up, down):  5.743E-02 0.000E+00

     total cpu time spent up to now is      286.1 secs

     WARNING: integrated charge=   240.00543475, expected=   240.00000000

     total energy              =   -1021.20446261 Ry
     estimated scf accuracy    <       0.00005477 Ry

     iteration # 10     ecut=    60.00 Ry     beta= 0.30
     Davidson diagonalization with overlap
     c_bands:  1 eigenvalues not converged
     c_bands:  1 eigenvalues not converged
     ethr =  2.28E-08,  avg # of iterations =  5.8

     negative rho (up, down):  5.737E-02 0.000E+00

     total cpu time spent up to now is      312.3 secs

     WARNING: integrated charge=   240.00536313, expected=   240.00000000

     total energy              =   -1021.20455064 Ry
     estimated scf accuracy    <       0.00002650 Ry

     iteration # 11     ecut=    60.00 Ry     beta= 0.30
     Davidson diagonalization with overlap
     ethr =  1.10E-08,  avg # of iterations =  3.4

     negative rho (up, down):  5.735E-02 0.000E+00

     total cpu time spent up to now is      337.7 secs

     WARNING: integrated charge=   240.00526769, expected=   240.00000000

     total energy              =   -1021.20455962 Ry
     estimated scf accuracy    <       0.00001225 Ry

     iteration # 12     ecut=    60.00 Ry     beta= 0.30
     Davidson diagonalization with overlap
     ethr =  5.10E-09,  avg # of iterations =  2.0

     negative rho (up, down):  5.733E-02 0.000E+00

     total cpu time spent up to now is      359.5 secs

     WARNING: integrated charge=   240.00514843, expected=   240.00000000

     total energy              =   -1021.20455515 Ry
     estimated scf accuracy    <       0.00000338 Ry

     iteration # 13     ecut=    60.00 Ry     beta= 0.30
     Davidson diagonalization with overlap
     ethr =  1.41E-09,  avg # of iterations =  5.0

     negative rho (up, down):  5.732E-02 0.000E+00

     total cpu time spent up to now is      388.7 secs

     WARNING: integrated charge=   240.00513493, expected=   240.00000000

     total energy              =   -1021.20455867 Ry
     estimated scf accuracy    <       0.00000049 Ry

     iteration # 14     ecut=    60.00 Ry     beta= 0.30
     Davidson diagonalization with overlap
     ethr =  2.05E-10,  avg # of iterations =  4.8

     negative rho (up, down):  5.732E-02 0.000E+00

     total cpu time spent up to now is      417.0 secs

     WARNING: integrated charge=   240.00511394, expected=   240.00000000

     total energy              =   -1021.20455921 Ry
     estimated scf accuracy    <       0.00000002 Ry

     iteration # 15     ecut=    60.00 Ry     beta= 0.30
     Davidson diagonalization with overlap
     c_bands:  1 eigenvalues not converged
     ethr =  1.02E-11,  avg # of iterations =  6.9

     negative rho (up, down):  5.732E-02 0.000E+00

     total cpu time spent up to now is      453.0 secs

     WARNING: integrated charge=   240.00510097, expected=   240.00000000

     total energy              =   -1021.20455975 Ry
     estimated scf accuracy    <       0.00000014 Ry

     iteration # 16     ecut=    60.00 Ry     beta= 0.30
     Davidson diagonalization with overlap
     c_bands:  1 eigenvalues not converged
     c_bands:  1 eigenvalues not converged
     c_bands:  1 eigenvalues not converged
     c_bands:  1 eigenvalues not converged
     ethr =  1.02E-11,  avg # of iterations =  5.8

     negative rho (up, down):  5.732E-02 0.000E+00

     total cpu time spent up to now is      481.1 secs

     WARNING: integrated charge=   240.00509952, expected=   240.00000000

     total energy              =   -1021.20455976 Ry
     estimated scf accuracy    <          3.0E-09 Ry

     iteration # 17     ecut=    60.00 Ry     beta= 0.30
     Davidson diagonalization with overlap
     ethr =  1.26E-12,  avg # of iterations =  5.1

     negative rho (up, down):  5.731E-02 0.000E+00

     total cpu time spent up to now is      507.0 secs

     WARNING: integrated charge=   240.00509563, expected=   240.00000000

     total energy              =   -1021.20455994 Ry
     estimated scf accuracy    <          3.1E-09 Ry

     iteration # 18     ecut=    60.00 Ry     beta= 0.30
     Davidson diagonalization with overlap
     c_bands:  1 eigenvalues not converged
     c_bands:  1 eigenvalues not converged
     ethr =  1.26E-12,  avg # of iterations =  4.6

     negative rho (up, down):  5.731E-02 0.000E+00

     total cpu time spent up to now is      533.2 secs

     WARNING: integrated charge=   240.00509454, expected=   240.00000000

     total energy              =   -1021.20456001 Ry
     estimated scf accuracy    <          1.7E-09 Ry

     iteration # 19     ecut=    60.00 Ry     beta= 0.30
     Davidson diagonalization with overlap
     ethr =  7.09E-13,  avg # of iterations =  2.0

     negative rho (up, down):  5.731E-02 0.000E+00

     total cpu time spent up to now is      555.0 secs

     End of self-consistent calculation

          k = 0.0000 0.0000 0.0000 ( 75445 PWs)   bands (ev):

   -45.4683 -45.4683 -45.4683 -45.4683 -45.4667 -45.4667 -45.4667 -45.4667
   -45.4667 -45.4667 -45.4667 -45.4667 -45.4667 -45.4667 -45.4667 -45.4666
   -45.4659 -45.4659 -45.4659 -45.4659 -45.4659 -45.4659 -45.4659 -45.4659
   -15.4115 -15.3253 -15.3253 -15.3253 -14.8425 -14.8425 -14.8425 -14.6954
   -11.8798 -11.8798 -11.8798 -11.8797 -11.8797 -11.8797 -11.8797 -11.8797
   -11.8797 -11.7030 -11.7030 -11.7030  -7.8834  -7.8834  -7.8834  -7.7008
    -7.6821  -7.6821  -7.6821  -7.3588  -5.3918  -5.3918  -5.3918  -5.2998
    -5.2998  -5.2998  -5.2998  -5.2997  -5.2997  -4.3931  -4.3931  -4.3931
    -3.5094  -3.5094  -3.5094  -3.1782  -3.1782  -3.1782  -3.1781  -3.1781
    -3.1781  -2.6612  -2.6611  -2.6610  -1.8891  -1.8891  -1.8891  -1.8674
    -1.8674  -1.7787  -1.7787  -1.7787  -1.6309  -1.6309  -1.6309  -1.5884
    -1.5884  -1.5884  -1.1916  -1.1916  -1.1915  -1.1915  -1.1915  -1.1915
    -0.6483  -0.6482  -0.6481  -0.6308  -0.6308  -0.6308  -0.4880  -0.4879
    -0.4879  -0.4879  -0.4879  -0.4879   1.7282   1.7282   1.7282   1.7400
     1.7400   1.7400   1.7860   1.7861   1.7861   1.7861   1.7861   1.7861
     2.3459   3.2904   3.2904   3.2904   3.6279   3.7275   3.7275   3.7275
     4.3767   4.3767   4.3768   4.5354   4.5354   4.5355   4.5355   4.5355
     4.5355   4.6821   4.6821   4.6822   4.8461   4.8462   4.8462   4.9585

          k =-0.0000-0.0000 0.2500 ( 75620 PWs)   bands (ev):

   -45.4683 -45.4683 -45.4683 -45.4683 -45.4667 -45.4667 -45.4667 -45.4667
   -45.4667 -45.4667 -45.4667 -45.4667 -45.4667 -45.4667 -45.4667 -45.4666
   -45.4659 -45.4659 -45.4659 -45.4659 -45.4659 -45.4659 -45.4659 -45.4659
   -15.4009 -15.3406 -15.3253 -15.3253 -14.8425 -14.8425 -14.8186 -14.7152
   -11.8798 -11.8798 -11.8797 -11.8797 -11.8797 -11.8797 -11.8797 -11.8797
   -11.8544 -11.7295 -11.7030 -11.7030  -7.8809  -7.8809  -7.8249  -7.7033
    -7.6850  -7.6850  -7.6765  -7.4444  -5.3794  -5.3793  -5.3144  -5.3144
    -5.2999  -5.2999  -5.2995  -5.2995  -5.2621  -4.5895  -4.3938  -4.3938
    -3.4970  -3.4970  -3.3330  -3.1893  -3.1893  -3.1786  -3.1786  -3.1169
    -3.1169  -2.7661  -2.7605  -2.7604  -1.8876  -1.8876  -1.8860  -1.8706
    -1.8602  -1.8201  -1.8200  -1.7959  -1.6029  -1.5784  -1.5759  -1.5759
    -1.5379  -1.5379  -1.2360  -1.2359  -1.2037  -1.2037  -1.1103  -1.1103
    -0.6456  -0.6334  -0.6334  -0.6333  -0.6294  -0.6293  -0.5313  -0.5313
    -0.5163  -0.5162  -0.4858  -0.4858   1.6905   1.7130   1.7361   1.7361
     1.7437   1.7437   1.7766   1.7766   1.7797   1.7797   1.7827   1.7827
     2.4861   3.1010   3.2905   3.2905   3.7052   3.8105   3.8105   3.8542
     4.3309   4.3309   4.3656   4.3822   4.3822   4.5285   4.5286   4.5801
     4.5802   4.6386   4.6787   4.7848   4.7851   4.8199   4.8201   4.8974

          k = 0.0000 0.0000-0.5000 ( 75724 PWs)   bands (ev):

   -45.4683 -45.4683 -45.4683 -45.4683 -45.4667 -45.4667 -45.4667 -45.4667
   -45.4667 -45.4667 -45.4667 -45.4667 -45.4667 -45.4667 -45.4667 -45.4666
   -45.4659 -45.4659 -45.4659 -45.4659 -45.4659 -45.4659 -45.4659 -45.4659
   -15.3730 -15.3730 -15.3253 -15.3253 -14.8425 -14.8425 -14.7650 -14.7650
   -11.8798 -11.8798 -11.8797 -11.8797 -11.8797 -11.8797 -11.8797 -11.8797
   -11.7925 -11.7925 -11.7030 -11.7030  -7.8782  -7.8782  -7.7229  -7.7229
    -7.6879  -7.6879  -7.6129  -7.6129  -5.3480  -5.3480  -5.3479  -5.3479
    -5.3001  -5.3001  -5.2992  -5.2992  -4.9488  -4.9488  -4.3945  -4.3945
    -3.4836  -3.4835  -3.2016  -3.2016  -3.1790  -3.1790  -3.0244  -3.0244
    -2.9553  -2.9553  -2.9553  -2.9553  -1.8783  -1.8783  -1.8710  -1.8710
    -1.8708  -1.8708  -1.8321  -1.8321  -1.5733  -1.5733  -1.5625  -1.5625
    -1.3650  -1.3650  -1.3650  -1.3650  -1.2169  -1.2169  -1.0230  -1.0230
    -0.6394  -0.6394  -0.6357  -0.6357  -0.5865  -0.5864  -0.5777  -0.5777
    -0.5776  -0.5776  -0.4837  -0.4837   1.6737   1.6737   1.7490   1.7490
     1.7556   1.7556   1.7556   1.7556   1.7717   1.7717   1.7793   1.7793
     2.7826   2.7826   3.2900   3.2900   3.8710   3.8710   4.0116   4.0116
     4.0660   4.0660   4.4147   4.4147   4.4154   4.4155   4.4915   4.4915
     4.6808   4.6809   4.6810   4.6810   4.7350   4.7351   4.8369   4.8371

          k =-0.0000 0.2500-0.0000 ( 75620 PWs)   bands (ev):

   -45.4683 -45.4683 -45.4683 -45.4683 -45.4667 -45.4667 -45.4667 -45.4667
   -45.4667 -45.4667 -45.4667 -45.4667 -45.4667 -45.4667 -45.4667 -45.4666
   -45.4659 -45.4659 -45.4659 -45.4659 -45.4659 -45.4659 -45.4659 -45.4659
   -15.4009 -15.3406 -15.3253 -15.3253 -14.8425 -14.8425 -14.8186 -14.7152
   -11.8798 -11.8798 -11.8797 -11.8797 -11.8797 -11.8797 -11.8797 -11.8797
   -11.8544 -11.7295 -11.7030 -11.7030  -7.8809  -7.8809  -7.8249  -7.7033
    -7.6850  -7.6850  -7.6765  -7.4444  -5.3794  -5.3793  -5.3144  -5.3143
    -5.2999  -5.2999  -5.2995  -5.2995  -5.2621  -4.5895  -4.3938  -4.3938
    -3.4970  -3.4970  -3.3330  -3.1893  -3.1893  -3.1786  -3.1786  -3.1170
    -3.1169  -2.7661  -2.7605  -2.7604  -1.8876  -1.8876  -1.8860  -1.8706
    -1.8602  -1.8200  -1.8200  -1.7959  -1.6029  -1.5784  -1.5759  -1.5759
    -1.5379  -1.5378  -1.2360  -1.2359  -1.2037  -1.2037  -1.1103  -1.1103
    -0.6456  -0.6334  -0.6334  -0.6333  -0.6294  -0.6293  -0.5313  -0.5313
    -0.5163  -0.5162  -0.4858  -0.4858   1.6905   1.7130   1.7361   1.7361
     1.7437   1.7437   1.7766   1.7766   1.7797   1.7797   1.7827   1.7827
     2.4861   3.1010   3.2905   3.2905   3.7052   3.8105   3.8105   3.8542
     4.3309   4.3309   4.3656   4.3822   4.3822   4.5286   4.5286   4.5801
     4.5801   4.6387   4.6787   4.7848   4.7848   4.8198   4.8972   4.9895

          k =-0.0000 0.2500 0.2500 ( 75619 PWs)   bands (ev):

   -45.4683 -45.4683 -45.4683 -45.4683 -45.4667 -45.4667 -45.4667 -45.4667
   -45.4667 -45.4667 -45.4667 -45.4667 -45.4667 -45.4667 -45.4666 -45.4666
   -45.4659 -45.4659 -45.4659 -45.4659 -45.4659 -45.4659 -45.4659 -45.4659
   -15.3915 -15.3384 -15.3384 -15.3276 -14.8390 -14.8221 -14.8221 -14.7325
   -11.8798 -11.8798 -11.8797 -11.8797 -11.8797 -11.8797 -11.8797 -11.8797
   -11.8326 -11.7257 -11.7257 -11.7069  -7.8701  -7.8298  -7.8298  -7.7058
    -7.6866  -7.6814  -7.6814  -7.5117  -5.3785  -5.3677  -5.3185  -5.3185
    -5.3134  -5.3093  -5.3093  -5.2931  -5.1414  -4.5548  -4.5548  -4.4160
    -3.4827  -3.3747  -3.3747  -3.2202  -3.1417  -3.1417  -3.1219  -3.0963
    -3.0963  -2.9195  -2.8377  -2.7677  -1.8877  -1.8849  -1.8849  -1.8703
    -1.8674  -1.8427  -1.8328  -1.8328  -1.5599  -1.5599  -1.5524  -1.5494
    -1.5169  -1.4474  -1.2536  -1.2536  -1.2473  -1.1545  -1.1545  -1.0551
    -0.6459  -0.6358  -0.6358  -0.6356  -0.6131  -0.6114  -0.5545  -0.5439
    -0.5439  -0.5117  -0.5116  -0.4953   1.6605   1.7079   1.7079   1.7385
     1.7405   1.7558   1.7567   1.7697   1.7697   1.7866   1.7866   1.7973
     2.6016   3.1504   3.1504   3.2803   3.7683   3.8367   3.8367   3.8884
     4.1187   4.3516   4.3516   4.4246   4.4625   4.4625   4.4822   4.5725
     4.5726   4.6226   4.7040   4.7871   4.7872   4.8720   4.8825   4.8852

          k = 0.0000 0.2500-0.5000 ( 75678 PWs)   bands (ev):

   -45.4683 -45.4683 -45.4683 -45.4683 -45.4667 -45.4667 -45.4667 -45.4667
   -45.4667 -45.4667 -45.4667 -45.4667 -45.4667 -45.4666 -45.4666 -45.4666
   -45.4659 -45.4659 -45.4659 -45.4659 -45.4659 -45.4659 -45.4659 -45.4659
   -15.3667 -15.3667 -15.3331 -15.3331 -14.8304 -14.8304 -14.7757 -14.7757
   -11.8798 -11.8798 -11.8797 -11.8797 -11.8797 -11.8797 -11.8797 -11.8797
   -11.7796 -11.7796 -11.7163 -11.7163  -7.8469  -7.8469  -7.7298  -7.7298
    -7.6873  -7.6873  -7.6418  -7.6418  -5.3530  -5.3529  -5.3387  -5.3387
    -5.3214  -5.3214  -5.2987  -5.2986  -4.8650  -4.8650  -4.4793  -4.4792
    -3.4407  -3.4407  -3.1945  -3.1945  -3.1476  -3.1476  -3.0863  -3.0863
    -3.0013  -3.0013  -2.9179  -2.9179  -1.8781  -1.8781  -1.8763  -1.8763
    -1.8732  -1.8732  -1.8568  -1.8568  -1.5348  -1.5348  -1.5338  -1.5338
    -1.3848  -1.3848  -1.2806  -1.2806  -1.2762  -1.2762  -1.0414  -1.0414
    -0.6415  -0.6414  -0.6379  -0.6379  -0.5822  -0.5822  -0.5758  -0.5758
    -0.5671  -0.5671  -0.5037  -0.5036   1.6589   1.6589   1.7148   1.7148
     1.7533   1.7533   1.7581   1.7581   1.7758   1.7758   1.7976   1.7976
     2.8673   2.8674   3.2379   3.2379   3.8593   3.8593   3.8962   3.8962
     4.0960   4.0960   4.3437   4.3438   4.5035   4.5035   4.5774   4.5774
     4.6105   4.6106   4.7340   4.7357   4.8194   4.8610   4.8611   4.9732

          k = 0.0000 0.2500-0.2500 ( 75619 PWs)   bands (ev):

   -45.4683 -45.4683 -45.4683 -45.4683 -45.4667 -45.4667 -45.4667 -45.4667
   -45.4667 -45.4667 -45.4667 -45.4667 -45.4667 -45.4667 -45.4666 -45.4666
   -45.4659 -45.4659 -45.4659 -45.4659 -45.4659 -45.4659 -45.4659 -45.4659
   -15.3915 -15.3384 -15.3384 -15.3276 -14.8390 -14.8221 -14.8221 -14.7325
   -11.8798 -11.8798 -11.8797 -11.8797 -11.8797 -11.8797 -11.8797 -11.8797
   -11.8327 -11.7257 -11.7257 -11.7069  -7.8701  -7.8298  -7.8298  -7.7058
    -7.6866  -7.6814  -7.6814  -7.5117  -5.3785  -5.3677  -5.3185  -5.3185
    -5.3134  -5.3093  -5.3093  -5.2931  -5.1414  -4.5548  -4.5548  -4.4160
    -3.4827  -3.3746  -3.3746  -3.2202  -3.1417  -3.1417  -3.1219  -3.0963
    -3.0963  -2.9196  -2.8377  -2.7677  -1.8877  -1.8849  -1.8849  -1.8703
    -1.8674  -1.8427  -1.8328  -1.8328  -1.5599  -1.5599  -1.5525  -1.5494
    -1.5170  -1.4474  -1.2536  -1.2536  -1.2473  -1.1545  -1.1545  -1.0551
    -0.6459  -0.6358  -0.6358  -0.6356  -0.6131  -0.6115  -0.5545  -0.5439
    -0.5439  -0.5117  -0.5116  -0.4953   1.6605   1.7079   1.7079   1.7385
     1.7405   1.7558   1.7567   1.7697   1.7697   1.7866   1.7866   1.7973
     2.6016   3.1504   3.1504   3.2803   3.7683   3.8367   3.8367   3.8884
     4.1187   4.3516   4.3516   4.4246   4.4625   4.4625   4.4821   4.5725
     4.5726   4.6226   4.7040   4.7871   4.7871   4.8723   4.8836   4.8848

          k = 0.0000-0.5000 0.0000 ( 75724 PWs)   bands (ev):

   -45.4683 -45.4683 -45.4683 -45.4683 -45.4667 -45.4667 -45.4667 -45.4667
   -45.4667 -45.4667 -45.4667 -45.4667 -45.4667 -45.4667 -45.4667 -45.4666
   -45.4659 -45.4659 -45.4659 -45.4659 -45.4659 -45.4659 -45.4659 -45.4659
   -15.3730 -15.3730 -15.3253 -15.3253 -14.8425 -14.8425 -14.7650 -14.7650
   -11.8798 -11.8798 -11.8798 -11.8797 -11.8797 -11.8797 -11.8797 -11.8797
   -11.7925 -11.7925 -11.7030 -11.7030  -7.8782  -7.8782  -7.7229  -7.7229
    -7.6879  -7.6879  -7.6129  -7.6129  -5.3480  -5.3480  -5.3479  -5.3479
    -5.3001  -5.3001  -5.2992  -5.2992  -4.9488  -4.9488  -4.3945  -4.3945
    -3.4836  -3.4835  -3.2016  -3.2016  -3.1790  -3.1790  -3.0244  -3.0244
    -2.9553  -2.9553  -2.9552  -2.9552  -1.8783  -1.8783  -1.8710  -1.8710
    -1.8708  -1.8708  -1.8321  -1.8321  -1.5733  -1.5733  -1.5625  -1.5625
    -1.3650  -1.3650  -1.3650  -1.3649  -1.2169  -1.2168  -1.0230  -1.0230
    -0.6394  -0.6394  -0.6357  -0.6357  -0.5865  -0.5864  -0.5777  -0.5777
    -0.5776  -0.5776  -0.4837  -0.4837   1.6737   1.6737   1.7490   1.7490
     1.7556   1.7556   1.7556   1.7556   1.7717   1.7717   1.7793   1.7793
     2.7826   2.7826   3.2900   3.2900   3.8709   3.8710   4.0116   4.0116
     4.0660   4.0660   4.4147   4.4147   4.4154   4.4155   4.4915   4.4915
     4.6808   4.6808   4.6809   4.6810   4.7350   4.7350   4.8369   4.8370

          k = 0.0000-0.5000 0.2500 ( 75678 PWs)   bands (ev):

   -45.4683 -45.4683 -45.4683 -45.4683 -45.4667 -45.4667 -45.4667 -45.4667
   -45.4667 -45.4667 -45.4667 -45.4667 -45.4667 -45.4666 -45.4666 -45.4666
   -45.4659 -45.4659 -45.4659 -45.4659 -45.4659 -45.4659 -45.4659 -45.4659
   -15.3667 -15.3667 -15.3331 -15.3331 -14.8304 -14.8304 -14.7757 -14.7757
   -11.8798 -11.8798 -11.8798 -11.8797 -11.8797 -11.8797 -11.8797 -11.8797
   -11.7796 -11.7796 -11.7163 -11.7163  -7.8469  -7.8469  -7.7298  -7.7298
    -7.6873  -7.6873  -7.6418  -7.6418  -5.3530  -5.3529  -5.3387  -5.3387
    -5.3214  -5.3214  -5.2987  -5.2986  -4.8650  -4.8650  -4.4793  -4.4792
    -3.4407  -3.4407  -3.1945  -3.1945  -3.1476  -3.1476  -3.0863  -3.0863
    -3.0013  -3.0013  -2.9179  -2.9179  -1.8781  -1.8781  -1.8763  -1.8763
    -1.8732  -1.8732  -1.8568  -1.8568  -1.5348  -1.5348  -1.5338  -1.5338
    -1.3848  -1.3848  -1.2806  -1.2806  -1.2762  -1.2762  -1.0414  -1.0414
    -0.6415  -0.6414  -0.6379  -0.6379  -0.5822  -0.5822  -0.5758  -0.5758
    -0.5671  -0.5671  -0.5037  -0.5036   1.6589   1.6589   1.7148   1.7148
     1.7533   1.7533   1.7581   1.7581   1.7758   1.7758   1.7976   1.7976
     2.8673   2.8674   3.2379   3.2379   3.8593   3.8593   3.8962   3.8962
     4.0960   4.0960   4.3437   4.3437   4.5035   4.5035   4.5774   4.5775
     4.6105   4.6106   4.7341   4.7345   4.8192   4.8610   4.8612   4.9728

          k = 0.0000-0.5000-0.5000 ( 75924 PWs)   bands (ev):

   -45.4683 -45.4683 -45.4683 -45.4683 -45.4667 -45.4667 -45.4667 -45.4667
   -45.4667 -45.4667 -45.4667 -45.4667 -45.4667 -45.4666 -45.4666 -45.4666
   -45.4659 -45.4659 -45.4659 -45.4659 -45.4659 -45.4659 -45.4659 -45.4659
   -15.3507 -15.3507 -15.3507 -15.3507 -14.8024 -14.8024 -14.8024 -14.8024
   -11.8798 -11.8798 -11.8798 -11.8798 -11.8797 -11.8797 -11.8797 -11.8797
   -11.7482 -11.7482 -11.7481 -11.7481  -7.7751  -7.7751  -7.7751  -7.7751
    -7.6797  -7.6797  -7.6797  -7.6797  -5.3461  -5.3461  -5.3461  -5.3461
    -5.3171  -5.3171  -5.3171  -5.3171  -4.6733  -4.6733  -4.6733  -4.6733
    -3.3163  -3.3163  -3.3162  -3.3162  -3.1063  -3.1063  -3.1063  -3.1063
    -2.9667  -2.9667  -2.9667  -2.9667  -1.8791  -1.8791  -1.8791  -1.8791
    -1.8765  -1.8765  -1.8765  -1.8765  -1.4826  -1.4826  -1.4826  -1.4826
    -1.3864  -1.3864  -1.3864  -1.3864  -1.1324  -1.1324  -1.1324  -1.1324
    -0.6414  -0.6414  -0.6414  -0.6414  -0.5755  -0.5755  -0.5755  -0.5755
    -0.5409  -0.5409  -0.5409  -0.5409   1.6676   1.6676   1.6676   1.6676
     1.7523   1.7523   1.7523   1.7523   1.7962   1.7963   1.7963   1.7963
     3.0674   3.0674   3.0674   3.0674   3.8181   3.8181   3.8181   3.8181
     4.2339   4.2339   4.2339   4.2339   4.5757   4.5757   4.5757   4.5757
     4.7084   4.7084   4.7084   4.7084   4.8021   4.8021   4.8022   4.8022

          k = 0.2500-0.0000-0.0000 ( 75620 PWs)   bands (ev):

   -45.4683 -45.4683 -45.4683 -45.4683 -45.4667 -45.4667 -45.4667 -45.4667
   -45.4667 -45.4667 -45.4667 -45.4667 -45.4667 -45.4667 -45.4667 -45.4666
   -45.4659 -45.4659 -45.4659 -45.4659 -45.4659 -45.4659 -45.4659 -45.4659
   -15.4009 -15.3406 -15.3253 -15.3253 -14.8425 -14.8425 -14.8186 -14.7152
   -11.8798 -11.8798 -11.8798 -11.8797 -11.8797 -11.8797 -11.8797 -11.8797
   -11.8544 -11.7295 -11.7030 -11.7030  -7.8809  -7.8809  -7.8249  -7.7033
    -7.6850  -7.6850  -7.6765  -7.4444  -5.3794  -5.3793  -5.3144  -5.3144
    -5.2999  -5.2999  -5.2995  -5.2995  -5.2621  -4.5895  -4.3938  -4.3938
    -3.4970  -3.4970  -3.3330  -3.1893  -3.1893  -3.1786  -3.1786  -3.1169
    -3.1169  -2.7661  -2.7605  -2.7604  -1.8876  -1.8876  -1.8860  -1.8706
    -1.8602  -1.8200  -1.8200  -1.7959  -1.6029  -1.5784  -1.5759  -1.5759
    -1.5379  -1.5379  -1.2360  -1.2359  -1.2037  -1.2037  -1.1103  -1.1103
    -0.6456  -0.6334  -0.6334  -0.6333  -0.6294  -0.6294  -0.5313  -0.5313
    -0.5163  -0.5162  -0.4858  -0.4858   1.6905   1.7130   1.7361   1.7361
     1.7437   1.7437   1.7766   1.7766   1.7797   1.7797   1.7827   1.7827
     2.4861   3.1010   3.2905   3.2905   3.7052   3.8105   3.8105   3.8542
     4.3309   4.3309   4.3656   4.3822   4.3822   4.5286   4.5286   4.5801
     4.5801   4.6386   4.6793   4.7848   4.7848   4.8198   4.8199   4.9933

          k = 0.2500-0.0000 0.2500 ( 75619 PWs)   bands (ev):

   -45.4683 -45.4683 -45.4683 -45.4683 -45.4667 -45.4667 -45.4667 -45.4667
   -45.4667 -45.4667 -45.4667 -45.4667 -45.4666 -45.4666 -45.4666 -45.4666
   -45.4659 -45.4659 -45.4659 -45.4659 -45.4659 -45.4659 -45.4659 -45.4659
   -15.3915 -15.3384 -15.3384 -15.3276 -14.8390 -14.8221 -14.8221 -14.7325
   -11.8798 -11.8798 -11.8798 -11.8797 -11.8797 -11.8797 -11.8797 -11.8797
   -11.8326 -11.7257 -11.7256 -11.7069  -7.8701  -7.8298  -7.8298  -7.7058
    -7.6866  -7.6814  -7.6814  -7.5117  -5.3785  -5.3677  -5.3185  -5.3185
    -5.3134  -5.3093  -5.3093  -5.2931  -5.1413  -4.5548  -4.5548  -4.4160
    -3.4826  -3.3747  -3.3747  -3.2201  -3.1417  -3.1417  -3.1219  -3.0963
    -3.0963  -2.9195  -2.8377  -2.7678  -1.8877  -1.8849  -1.8849  -1.8703
    -1.8674  -1.8427  -1.8328  -1.8328  -1.5599  -1.5599  -1.5524  -1.5494
    -1.5169  -1.4474  -1.2536  -1.2536  -1.2473  -1.1545  -1.1545  -1.0551
    -0.6459  -0.6358  -0.6358  -0.6356  -0.6131  -0.6114  -0.5544  -0.5439
    -0.5439  -0.5117  -0.5116  -0.4953   1.6605   1.7079   1.7079   1.7385
     1.7406   1.7558   1.7567   1.7697   1.7697   1.7866   1.7866   1.7973
     2.6017   3.1504   3.1504   3.2804   3.7683   3.8366   3.8367   3.8884
     4.1187   4.3515   4.3516   4.4246   4.4625   4.4625   4.4822   4.5725
     4.5726   4.6226   4.7039   4.7871   4.7871   4.8720   4.8823   4.8850

          k = 0.2500 0.0000-0.5000 ( 75678 PWs)   bands (ev):

   -45.4683 -45.4683 -45.4683 -45.4683 -45.4667 -45.4667 -45.4667 -45.4667
   -45.4667 -45.4667 -45.4667 -45.4666 -45.4666 -45.4666 -45.4666 -45.4666
   -45.4659 -45.4659 -45.4659 -45.4659 -45.4659 -45.4659 -45.4659 -45.4659
   -15.3667 -15.3667 -15.3331 -15.3331 -14.8304 -14.8304 -14.7757 -14.7757
   -11.8798 -11.8798 -11.8798 -11.8797 -11.8797 -11.8797 -11.8797 -11.8797
   -11.7796 -11.7796 -11.7163 -11.7163  -7.8469  -7.8469  -7.7298  -7.7298
    -7.6873  -7.6873  -7.6418  -7.6418  -5.3530  -5.3529  -5.3387  -5.3387
    -5.3215  -5.3214  -5.2987  -5.2986  -4.8651  -4.8650  -4.4793  -4.4792
    -3.4407  -3.4406  -3.1945  -3.1945  -3.1477  -3.1476  -3.0864  -3.0862
    -3.0013  -3.0013  -2.9180  -2.9178  -1.8781  -1.8781  -1.8763  -1.8763
    -1.8732  -1.8732  -1.8568  -1.8568  -1.5348  -1.5348  -1.5338  -1.5338
    -1.3848  -1.3848  -1.2806  -1.2806  -1.2763  -1.2762  -1.0414  -1.0414
    -0.6415  -0.6414  -0.6379  -0.6379  -0.5822  -0.5822  -0.5759  -0.5758
    -0.5671  -0.5671  -0.5037  -0.5036   1.6589   1.6590   1.7148   1.7148
     1.7533   1.7533   1.7581   1.7581   1.7758   1.7758   1.7976   1.7976
     2.8673   2.8674   3.2378   3.2379   3.8593   3.8593   3.8962   3.8962
     4.0960   4.0960   4.3437   4.3438   4.5035   4.5035   4.5774   4.5775
     4.6106   4.6106   4.7341   4.7358   4.8192   4.8610   4.8611   4.9731

          k = 0.2500-0.0000-0.2500 ( 75619 PWs)   bands (ev):

   -45.4683 -45.4683 -45.4683 -45.4683 -45.4667 -45.4667 -45.4667 -45.4667
   -45.4667 -45.4667 -45.4667 -45.4667 -45.4666 -45.4666 -45.4666 -45.4666
   -45.4659 -45.4659 -45.4659 -45.4659 -45.4659 -45.4659 -45.4659 -45.4659
   -15.3915 -15.3384 -15.3384 -15.3276 -14.8390 -14.8221 -14.8221 -14.7325
   -11.8798 -11.8798 -11.8798 -11.8797 -11.8797 -11.8797 -11.8797 -11.8797
   -11.8326 -11.7257 -11.7256 -11.7069  -7.8701  -7.8298  -7.8298  -7.7058
    -7.6866  -7.6814  -7.6814  -7.5117  -5.3785  -5.3677  -5.3185  -5.3185
    -5.3133  -5.3093  -5.3093  -5.2931  -5.1414  -4.5548  -4.5548  -4.4160
    -3.4827  -3.3746  -3.3746  -3.2202  -3.1417  -3.1417  -3.1218  -3.0963
    -3.0963  -2.9196  -2.8377  -2.7676  -1.8877  -1.8849  -1.8849  -1.8703
    -1.8674  -1.8427  -1.8328  -1.8328  -1.5599  -1.5599  -1.5525  -1.5494
    -1.5170  -1.4474  -1.2536  -1.2536  -1.2472  -1.1545  -1.1545  -1.0551
    -0.6458  -0.6358  -0.6358  -0.6356  -0.6131  -0.6115  -0.5545  -0.5439
    -0.5439  -0.5117  -0.5116  -0.4953   1.6606   1.7078   1.7079   1.7385
     1.7405   1.7558   1.7567   1.7697   1.7697   1.7866   1.7866   1.7973
     2.6016   3.1504   3.1504   3.2803   3.7683   3.8367   3.8367   3.8884
     4.1187   4.3516   4.3516   4.4246   4.4625   4.4625   4.4821   4.5725
     4.5725   4.6227   4.7040   4.7870   4.7871   4.8718   4.8823   4.8848

          k = 0.2500 0.2500-0.0000 ( 75619 PWs)   bands (ev):

   -45.4683 -45.4683 -45.4683 -45.4683 -45.4667 -45.4667 -45.4667 -45.4667
   -45.4667 -45.4667 -45.4667 -45.4667 -45.4667 -45.4666 -45.4666 -45.4666
   -45.4659 -45.4659 -45.4659 -45.4659 -45.4659 -45.4659 -45.4659 -45.4659
   -15.3915 -15.3384 -15.3384 -15.3276 -14.8390 -14.8221 -14.8221 -14.7325
   -11.8798 -11.8798 -11.8798 -11.8797 -11.8797 -11.8797 -11.8797 -11.8797
   -11.8326 -11.7257 -11.7257 -11.7069  -7.8701  -7.8298  -7.8298  -7.7058
    -7.6866  -7.6814  -7.6814  -7.5117  -5.3785  -5.3677  -5.3185  -5.3185
    -5.3134  -5.3093  -5.3093  -5.2931  -5.1413  -4.5548  -4.5548  -4.4160
    -3.4827  -3.3747  -3.3747  -3.2202  -3.1417  -3.1417  -3.1219  -3.0963
    -3.0963  -2.9195  -2.8377  -2.7677  -1.8877  -1.8849  -1.8849  -1.8703
    -1.8674  -1.8427  -1.8328  -1.8328  -1.5599  -1.5599  -1.5524  -1.5494
    -1.5169  -1.4474  -1.2536  -1.2536  -1.2473  -1.1545  -1.1545  -1.0551
    -0.6459  -0.6358  -0.6358  -0.6356  -0.6131  -0.6114  -0.5545  -0.5439
    -0.5439  -0.5117  -0.5116  -0.4953   1.6605   1.7079   1.7079   1.7385
     1.7405   1.7558   1.7567   1.7697   1.7697   1.7866   1.7866   1.7973
     2.6016   3.1504   3.1504   3.2803   3.7683   3.8367   3.8367   3.8884
     4.1187   4.3515   4.3516   4.4246   4.4625   4.4625   4.4822   4.5725
     4.5726   4.6226   4.7039   4.7871   4.7871   4.8721   4.8823   4.8849

          k = 0.2500 0.2500 0.2500 ( 75654 PWs)   bands (ev):

   -45.4683 -45.4683 -45.4683 -45.4683 -45.4667 -45.4667 -45.4667 -45.4667
   -45.4667 -45.4667 -45.4667 -45.4667 -45.4666 -45.4666 -45.4666 -45.4666
   -45.4659 -45.4659 -45.4659 -45.4659 -45.4659 -45.4659 -45.4659 -45.4659
   -15.3833 -15.3384 -15.3384 -15.3384 -14.8221 -14.8221 -14.8221 -14.7470
   -11.8798 -11.8798 -11.8797 -11.8797 -11.8797 -11.8797 -11.8797 -11.8797
   -11.8145 -11.7257 -11.7257 -11.7257  -7.8269  -7.8269  -7.8269  -7.7085
    -7.6843  -7.6843  -7.6843  -7.5639  -5.3695  -5.3695  -5.3235  -5.3235
    -5.3235  -5.3108  -5.3108  -5.3108  -5.0337  -4.5358  -4.5358  -4.5358
    -3.4274  -3.4274  -3.4274  -3.1194  -3.1194  -3.1194  -3.0770  -3.0770
    -3.0770  -3.0577  -2.8293  -2.8293  -1.8848  -1.8848  -1.8848  -1.8706
    -1.8706  -1.8513  -1.8513  -1.8513  -1.5342  -1.5342  -1.5341  -1.4928
    -1.4928  -1.4103  -1.2819  -1.2819  -1.2819  -1.1188  -1.1188  -1.1188
    -0.6461  -0.6378  -0.6378  -0.6378  -0.5964  -0.5963  -0.5549  -0.5549
    -0.5549  -0.5142  -0.5142  -0.5142   1.6340   1.6873   1.6874   1.6874
     1.7615   1.7615   1.7775   1.7775   1.7775   1.7906   1.7906   1.7906
     2.7026   3.1860   3.1861   3.1861   3.8096   3.8338   3.8339   3.8339
     4.1719   4.1719   4.1719   4.3559   4.5278   4.5278   4.5278   4.6610
     4.6610   4.6612   4.7121   4.8068   4.8068   4.8069   4.8279   4.8279

          k = 0.2500 0.2500-0.5000 ( 75688 PWs)   bands (ev):

   -45.4683 -45.4683 -45.4683 -45.4683 -45.4667 -45.4667 -45.4667 -45.4667
   -45.4667 -45.4667 -45.4667 -45.4666 -45.4666 -45.4666 -45.4666 -45.4666
   -45.4659 -45.4659 -45.4659 -45.4659 -45.4659 -45.4659 -45.4659 -45.4659
   -15.3622 -15.3622 -15.3384 -15.3384 -14.8221 -14.8221 -14.7834 -14.7834
   -11.8798 -11.8798 -11.8797 -11.8797 -11.8797 -11.8797 -11.8797 -11.8797
   -11.7705 -11.7704 -11.7257 -11.7257  -7.8238  -7.8238  -7.7364  -7.7364
    -7.6873  -7.6873  -7.6599  -7.6598  -5.3474  -5.3473  -5.3470  -5.3470
    -5.3292  -5.3292  -5.3115  -5.3115  -4.7916  -4.7916  -4.5164  -4.5164
    -3.4710  -3.4710  -3.2665  -3.2664  -3.1135  -3.1135  -3.0511  -3.0511
    -2.9610  -2.9610  -2.9393  -2.9392  -1.8787  -1.8787  -1.8779  -1.8779
    -1.8744  -1.8743  -1.8661  -1.8661  -1.5051  -1.5051  -1.4993  -1.4993
    -1.3769  -1.3768  -1.3103  -1.3103  -1.2699  -1.2699  -1.0864  -1.0864
    -0.6428  -0.6427  -0.6397  -0.6397  -0.5692  -0.5692  -0.5686  -0.5686
    -0.5568  -0.5567  -0.5150  -0.5150   1.6347   1.6347   1.6717   1.6717
     1.7756   1.7756   1.7778   1.7778   1.7780   1.7780   1.7973   1.7973
     2.9438   2.9439   3.2251   3.2251   3.8349   3.8350   3.8739   3.8740
     3.9929   3.9930   4.2521   4.2522   4.5875   4.5876   4.6283   4.6283
     4.6749   4.6749   4.7431   4.7433   4.8329   4.8336   4.8413   4.8414

          k = 0.2500 0.2500-0.2500 ( 75654 PWs)   bands (ev):

   -45.4683 -45.4683 -45.4683 -45.4683 -45.4667 -45.4667 -45.4667 -45.4667
   -45.4667 -45.4667 -45.4667 -45.4667 -45.4666 -45.4666 -45.4666 -45.4666
   -45.4659 -45.4659 -45.4659 -45.4659 -45.4659 -45.4659 -45.4659 -45.4659
   -15.3833 -15.3384 -15.3384 -15.3384 -14.8221 -14.8221 -14.8221 -14.7470
   -11.8798 -11.8798 -11.8797 -11.8797 -11.8797 -11.8797 -11.8797 -11.8797
   -11.8146 -11.7257 -11.7257 -11.7257  -7.8269  -7.8269  -7.8269  -7.7085
    -7.6843  -7.6843  -7.6843  -7.5639  -5.3695  -5.3694  -5.3235  -5.3235
    -5.3234  -5.3109  -5.3109  -5.3109  -5.0338  -4.5358  -4.5358  -4.5358
    -3.4274  -3.4274  -3.4273  -3.1195  -3.1195  -3.1195  -3.0770  -3.0770
    -3.0769  -3.0578  -2.8293  -2.8292  -1.8849  -1.8848  -1.8848  -1.8706
    -1.8706  -1.8513  -1.8513  -1.8513  -1.5342  -1.5342  -1.5341  -1.4928
    -1.4927  -1.4103  -1.2819  -1.2819  -1.2818  -1.1189  -1.1189  -1.1188
    -0.6460  -0.6378  -0.6378  -0.6378  -0.5965  -0.5964  -0.5550  -0.5549
    -0.5549  -0.5142  -0.5142  -0.5142   1.6340   1.6873   1.6873   1.6874
     1.7615   1.7615   1.7775   1.7775   1.7775   1.7906   1.7906   1.7906
     2.7025   3.1861   3.1861   3.1861   3.8096   3.8339   3.8339   3.8339
     4.1718   4.1719   4.1719   4.3558   4.5278   4.5278   4.5278   4.6610
     4.6610   4.6610   4.7122   4.8070   4.8071   4.8071   4.8282   4.8283

          k = 0.2500-0.5000-0.0000 ( 75678 PWs)   bands (ev):

   -45.4683 -45.4683 -45.4683 -45.4683 -45.4667 -45.4667 -45.4667 -45.4667
   -45.4667 -45.4667 -45.4667 -45.4667 -45.4666 -45.4666 -45.4666 -45.4666
   -45.4659 -45.4659 -45.4659 -45.4659 -45.4659 -45.4659 -45.4659 -45.4659
   -15.3667 -15.3667 -15.3331 -15.3331 -14.8304 -14.8304 -14.7757 -14.7757
   -11.8798 -11.8798 -11.8798 -11.8797 -11.8797 -11.8797 -11.8797 -11.8797
   -11.7796 -11.7796 -11.7163 -11.7163  -7.8469  -7.8469  -7.7298  -7.7298
    -7.6873  -7.6873  -7.6418  -7.6418  -5.3530  -5.3529  -5.3387  -5.3387
    -5.3214  -5.3214  -5.2987  -5.2986  -4.8650  -4.8650  -4.4793  -4.4792
    -3.4407  -3.4407  -3.1945  -3.1945  -3.1477  -3.1476  -3.0863  -3.0863
    -3.0013  -3.0013  -2.9179  -2.9179  -1.8781  -1.8781  -1.8763  -1.8763
    -1.8732  -1.8732  -1.8568  -1.8568  -1.5348  -1.5348  -1.5338  -1.5338
    -1.3848  -1.3848  -1.2806  -1.2806  -1.2762  -1.2762  -1.0414  -1.0414
    -0.6415  -0.6414  -0.6379  -0.6379  -0.5822  -0.5822  -0.5759  -0.5758
    -0.5671  -0.5671  -0.5037  -0.5036   1.6589   1.6589   1.7148   1.7148
     1.7533   1.7533   1.7581   1.7581   1.7758   1.7758   1.7976   1.7976
     2.8673   2.8674   3.2378   3.2379   3.8593   3.8593   3.8962   3.8962
     4.0960   4.0960   4.3437   4.3437   4.5035   4.5035   4.5774   4.5775
     4.6105   4.6106   4.7341   4.7341   4.8193   4.8610   4.8614   4.9735

          k = 0.2500-0.5000 0.2500 ( 75688 PWs)   bands (ev):

   -45.4683 -45.4683 -45.4683 -45.4683 -45.4667 -45.4667 -45.4667 -45.4667
   -45.4667 -45.4667 -45.4667 -45.4667 -45.4666 -45.4666 -45.4666 -45.4666
   -45.4659 -45.4659 -45.4659 -45.4659 -45.4659 -45.4659 -45.4659 -45.4659
   -15.3622 -15.3622 -15.3384 -15.3384 -14.8221 -14.8221 -14.7834 -14.7834
   -11.8798 -11.8797 -11.8797 -11.8797 -11.8797 -11.8797 -11.8797 -11.8797
   -11.7705 -11.7704 -11.7257 -11.7257  -7.8238  -7.8238  -7.7364  -7.7364
    -7.6873  -7.6873  -7.6599  -7.6599  -5.3473  -5.3473  -5.3471  -5.3470
    -5.3292  -5.3292  -5.3115  -5.3115  -4.7916  -4.7916  -4.5164  -4.5164
    -3.4710  -3.4710  -3.2665  -3.2664  -3.1134  -3.1134  -3.0511  -3.0511
    -2.9610  -2.9610  -2.9393  -2.9392  -1.8787  -1.8787  -1.8779  -1.8779
    -1.8744  -1.8744  -1.8661  -1.8661  -1.5051  -1.5051  -1.4993  -1.4993
    -1.3769  -1.3769  -1.3103  -1.3103  -1.2699  -1.2699  -1.0864  -1.0864
    -0.6428  -0.6427  -0.6397  -0.6397  -0.5692  -0.5692  -0.5686  -0.5686
    -0.5568  -0.5568  -0.5150  -0.5150   1.6347   1.6347   1.6717   1.6717
     1.7756   1.7756   1.7778   1.7778   1.7780   1.7780   1.7973   1.7973
     2.9438   2.9439   3.2251   3.2251   3.8349   3.8349   3.8739   3.8740
     3.9930   3.9930   4.2521   4.2522   4.5875   4.5879   4.6282   4.6283
     4.6749   4.6749   4.7431   4.7432   4.8332   4.8413   4.8414   5.0462

          k = 0.2500-0.5000-0.5000 ( 75672 PWs)   bands (ev):

   -45.4683 -45.4683 -45.4683 -45.4683 -45.4667 -45.4667 -45.4667 -45.4667
   -45.4667 -45.4667 -45.4666 -45.4666 -45.4666 -45.4666 -45.4666 -45.4666
   -45.4659 -45.4659 -45.4659 -45.4659 -45.4659 -45.4659 -45.4659 -45.4659
   -15.3507 -15.3507 -15.3507 -15.3507 -14.8024 -14.8024 -14.8024 -14.8024
   -11.8797 -11.8797 -11.8797 -11.8797 -11.8797 -11.8797 -11.8797 -11.8797
   -11.7482 -11.7482 -11.7482 -11.7482  -7.7717  -7.7717  -7.7717  -7.7717
    -7.6828  -7.6828  -7.6828  -7.6828  -5.3461  -5.3461  -5.3461  -5.3461
    -5.3321  -5.3321  -5.3321  -5.3321  -4.6381  -4.6381  -4.6381  -4.6380
    -3.4189  -3.4189  -3.4188  -3.4188  -3.0215  -3.0215  -3.0215  -3.0214
    -2.9667  -2.9667  -2.9667  -2.9667  -1.8782  -1.8782  -1.8782  -1.8782
    -1.8766  -1.8766  -1.8766  -1.8766  -1.4478  -1.4478  -1.4478  -1.4478
    -1.3875  -1.3875  -1.3875  -1.3874  -1.1862  -1.1862  -1.1862  -1.1862
    -0.6427  -0.6427  -0.6426  -0.6426  -0.5562  -0.5562  -0.5562  -0.5562
    -0.5397  -0.5397  -0.5397  -0.5396   1.6298   1.6298   1.6298   1.6298
     1.7798   1.7798   1.7798   1.7798   1.7960   1.7960   1.7960   1.7960
     3.1164   3.1165   3.1165   3.1166   3.7954   3.7955   3.7955   3.7955
     4.0847   4.0848   4.0848   4.0848   4.6577   4.6578   4.6578   4.6578
     4.7671   4.7671   4.7672   4.7672   4.8089   4.8092   5.1242   5.1253

          k = 0.2500-0.5000-0.2500 ( 75688 PWs)   bands (ev):

   -45.4683 -45.4683 -45.4683 -45.4683 -45.4667 -45.4667 -45.4667 -45.4667
   -45.4667 -45.4667 -45.4667 -45.4666 -45.4666 -45.4666 -45.4666 -45.4666
   -45.4659 -45.4659 -45.4659 -45.4659 -45.4659 -45.4659 -45.4659 -45.4659
   -15.3622 -15.3622 -15.3384 -15.3384 -14.8221 -14.8221 -14.7834 -14.7834
   -11.8798 -11.8798 -11.8797 -11.8797 -11.8797 -11.8797 -11.8797 -11.8797
   -11.7705 -11.7704 -11.7257 -11.7257  -7.8238  -7.8238  -7.7364  -7.7364
    -7.6873  -7.6873  -7.6599  -7.6599  -5.3474  -5.3474  -5.3470  -5.3470
    -5.3292  -5.3292  -5.3115  -5.3115  -4.7916  -4.7916  -4.5164  -4.5164
    -3.4710  -3.4709  -3.2665  -3.2665  -3.1135  -3.1135  -3.0511  -3.0510
    -2.9609  -2.9609  -2.9393  -2.9393  -1.8788  -1.8788  -1.8779  -1.8779
    -1.8743  -1.8743  -1.8660  -1.8660  -1.5051  -1.5051  -1.4993  -1.4993
    -1.3768  -1.3768  -1.3103  -1.3103  -1.2700  -1.2700  -1.0864  -1.0864
    -0.6427  -0.6427  -0.6398  -0.6397  -0.5693  -0.5692  -0.5687  -0.5687
    -0.5568  -0.5567  -0.5149  -0.5149   1.6347   1.6347   1.6717   1.6717
     1.7756   1.7756   1.7778   1.7778   1.7779   1.7780   1.7973   1.7973
     2.9438   2.9438   3.2251   3.2252   3.8349   3.8349   3.8740   3.8740
     3.9929   3.9929   4.2521   4.2521   4.5876   4.5879   4.6283   4.6283
     4.6750   4.6750   4.7431   4.7432   4.8328   4.8412   4.8413   5.0464

          k = 0.2500-0.2500-0.0000 ( 75619 PWs)   bands (ev):

   -45.4683 -45.4683 -45.4683 -45.4683 -45.4667 -45.4667 -45.4667 -45.4667
   -45.4667 -45.4667 -45.4667 -45.4667 -45.4667 -45.4666 -45.4666 -45.4666
   -45.4659 -45.4659 -45.4659 -45.4659 -45.4659 -45.4659 -45.4659 -45.4659
   -15.3915 -15.3384 -15.3384 -15.3276 -14.8390 -14.8221 -14.8221 -14.7325
   -11.8798 -11.8798 -11.8797 -11.8797 -11.8797 -11.8797 -11.8797 -11.8797
   -11.8326 -11.7257 -11.7257 -11.7069  -7.8701  -7.8298  -7.8298  -7.7058
    -7.6866  -7.6814  -7.6814  -7.5117  -5.3785  -5.3677  -5.3185  -5.3185
    -5.3134  -5.3093  -5.3093  -5.2931  -5.1414  -4.5548  -4.5548  -4.4160
    -3.4827  -3.3746  -3.3746  -3.2202  -3.1417  -3.1417  -3.1219  -3.0963
    -3.0963  -2.9196  -2.8377  -2.7677  -1.8877  -1.8849  -1.8849  -1.8703
    -1.8674  -1.8427  -1.8328  -1.8328  -1.5599  -1.5599  -1.5525  -1.5494
    -1.5170  -1.4474  -1.2536  -1.2536  -1.2473  -1.1545  -1.1545  -1.0551
    -0.6459  -0.6358  -0.6358  -0.6356  -0.6131  -0.6115  -0.5545  -0.5439
    -0.5439  -0.5117  -0.5116  -0.4953   1.6605   1.7079   1.7079   1.7385
     1.7405   1.7558   1.7567   1.7697   1.7697   1.7866   1.7866   1.7973
     2.6016   3.1504   3.1504   3.2803   3.7683   3.8367   3.8367   3.8884
     4.1187   4.3516   4.3516   4.4246   4.4625   4.4625   4.4821   4.5725
     4.5726   4.6227   4.7040   4.7871   4.7871   4.8721   4.8823   4.8850

          k = 0.2500-0.2500 0.2500 ( 75654 PWs)   bands (ev):

   -45.4683 -45.4683 -45.4683 -45.4683 -45.4667 -45.4667 -45.4667 -45.4667
   -45.4667 -45.4667 -45.4667 -45.4667 -45.4666 -45.4666 -45.4666 -45.4666
   -45.4659 -45.4659 -45.4659 -45.4659 -45.4659 -45.4659 -45.4659 -45.4659
   -15.3833 -15.3384 -15.3384 -15.3384 -14.8221 -14.8221 -14.8221 -14.7470
   -11.8798 -11.8798 -11.8798 -11.8797 -11.8797 -11.8797 -11.8797 -11.8797
   -11.8146 -11.7257 -11.7257 -11.7257  -7.8269  -7.8269  -7.8269  -7.7085
    -7.6843  -7.6843  -7.6843  -7.5639  -5.3695  -5.3694  -5.3235  -5.3235
    -5.3235  -5.3109  -5.3109  -5.3109  -5.0338  -4.5358  -4.5358  -4.5358
    -3.4274  -3.4274  -3.4273  -3.1194  -3.1194  -3.1194  -3.0770  -3.0770
    -3.0770  -3.0578  -2.8293  -2.8292  -1.8848  -1.8848  -1.8848  -1.8706
    -1.8706  -1.8513  -1.8513  -1.8513  -1.5342  -1.5342  -1.5341  -1.4928
    -1.4927  -1.4103  -1.2819  -1.2819  -1.2819  -1.1189  -1.1189  -1.1188
    -0.6461  -0.6378  -0.6378  -0.6378  -0.5964  -0.5964  -0.5550  -0.5549
    -0.5549  -0.5142  -0.5142  -0.5142   1.6340   1.6873   1.6874   1.6874
     1.7615   1.7615   1.7775   1.7775   1.7775   1.7906   1.7906   1.7906
     2.7025   3.1860   3.1861   3.1861   3.8096   3.8339   3.8339   3.8339
     4.1718   4.1719   4.1719   4.3558   4.5278   4.5278   4.5278   4.6610
     4.6610   4.6612   4.7122   4.8068   4.8068   4.8069   4.8279   4.8282

          k = 0.2500-0.2500-0.5000 ( 75688 PWs)   bands (ev):

   -45.4683 -45.4683 -45.4683 -45.4683 -45.4667 -45.4667 -45.4667 -45.4667
   -45.4667 -45.4667 -45.4667 -45.4666 -45.4666 -45.4666 -45.4666 -45.4666
   -45.4659 -45.4659 -45.4659 -45.4659 -45.4659 -45.4659 -45.4659 -45.4659
   -15.3622 -15.3622 -15.3384 -15.3384 -14.8221 -14.8221 -14.7834 -14.7834
   -11.8798 -11.8798 -11.8797 -11.8797 -11.8797 -11.8797 -11.8797 -11.8797
   -11.7705 -11.7704 -11.7257 -11.7257  -7.8238  -7.8238  -7.7364  -7.7364
    -7.6873  -7.6873  -7.6599  -7.6598  -5.3474  -5.3474  -5.3470  -5.3470
    -5.3292  -5.3292  -5.3115  -5.3115  -4.7916  -4.7916  -4.5164  -4.5164
    -3.4710  -3.4709  -3.2665  -3.2664  -3.1135  -3.1135  -3.0511  -3.0510
    -2.9609  -2.9609  -2.9393  -2.9393  -1.8788  -1.8788  -1.8779  -1.8779
    -1.8743  -1.8743  -1.8661  -1.8660  -1.5051  -1.5051  -1.4993  -1.4993
    -1.3768  -1.3768  -1.3103  -1.3103  -1.2700  -1.2700  -1.0864  -1.0864
    -0.6428  -0.6427  -0.6398  -0.6397  -0.5693  -0.5692  -0.5687  -0.5687
    -0.5568  -0.5567  -0.5149  -0.5149   1.6347   1.6347   1.6717   1.6717
     1.7756   1.7756   1.7778   1.7778   1.7780   1.7780   1.7973   1.7973
     2.9438   2.9438   3.2251   3.2252   3.8349   3.8349   3.8740   3.8740
     3.9929   3.9930   4.2521   4.2522   4.5876   4.5879   4.6283   4.6283
     4.6749   4.6750   4.7431   4.7432   4.8331   4.8412   4.8413   5.0468

          k = 0.2500-0.2500-0.2500 ( 75654 PWs)   bands (ev):

   -45.4683 -45.4683 -45.4683 -45.4683 -45.4667 -45.4667 -45.4667 -45.4667
   -45.4667 -45.4667 -45.4667 -45.4667 -45.4666 -45.4666 -45.4666 -45.4666
   -45.4659 -45.4659 -45.4659 -45.4659 -45.4659 -45.4659 -45.4659 -45.4659
   -15.3833 -15.3384 -15.3384 -15.3384 -14.8221 -14.8221 -14.8221 -14.7470
   -11.8798 -11.8798 -11.8797 -11.8797 -11.8797 -11.8797 -11.8797 -11.8797
   -11.8146 -11.7257 -11.7257 -11.7257  -7.8269  -7.8269  -7.8269  -7.7085
    -7.6843  -7.6843  -7.6843  -7.5639  -5.3695  -5.3694  -5.3235  -5.3235
    -5.3234  -5.3109  -5.3109  -5.3109  -5.0338  -4.5358  -4.5358  -4.5358
    -3.4274  -3.4274  -3.4273  -3.1195  -3.1195  -3.1195  -3.0770  -3.0770
    -3.0769  -3.0579  -2.8293  -2.8292  -1.8849  -1.8848  -1.8848  -1.8706
    -1.8706  -1.8513  -1.8513  -1.8513  -1.5342  -1.5342  -1.5341  -1.4928
    -1.4927  -1.4103  -1.2819  -1.2818  -1.2818  -1.1189  -1.1189  -1.1189
    -0.6460  -0.6378  -0.6378  -0.6378  -0.5965  -0.5964  -0.5550  -0.5549
    -0.5549  -0.5142  -0.5142  -0.5142   1.6341   1.6873   1.6873   1.6874
     1.7615   1.7615   1.7775   1.7775   1.7775   1.7906   1.7906   1.7906
     2.7025   3.1861   3.1861   3.1861   3.8096   3.8339   3.8339   3.8339
     4.1719   4.1719   4.1719   4.3558   4.5278   4.5278   4.5278   4.6610
     4.6611   4.6612   4.7123   4.8067   4.8067   4.8068   4.8278   4.8279

          k =-0.5000 0.0000 0.0000 ( 75724 PWs)   bands (ev):

   -45.4683 -45.4683 -45.4683 -45.4683 -45.4667 -45.4667 -45.4667 -45.4667
   -45.4667 -45.4667 -45.4667 -45.4667 -45.4667 -45.4667 -45.4667 -45.4666
   -45.4659 -45.4659 -45.4659 -45.4659 -45.4659 -45.4659 -45.4659 -45.4659
   -15.3730 -15.3730 -15.3253 -15.3253 -14.8425 -14.8425 -14.7650 -14.7650
   -11.8798 -11.8798 -11.8798 -11.8797 -11.8797 -11.8797 -11.8797 -11.8797
   -11.7925 -11.7925 -11.7030 -11.7030  -7.8782  -7.8782  -7.7229  -7.7229
    -7.6879  -7.6879  -7.6129  -7.6129  -5.3479  -5.3479  -5.3479  -5.3479
    -5.3001  -5.3001  -5.2992  -5.2992  -4.9488  -4.9488  -4.3945  -4.3945
    -3.4836  -3.4835  -3.2016  -3.2016  -3.1790  -3.1790  -3.0244  -3.0244
    -2.9553  -2.9553  -2.9553  -2.9553  -1.8783  -1.8783  -1.8710  -1.8710
    -1.8708  -1.8708  -1.8321  -1.8321  -1.5733  -1.5733  -1.5625  -1.5625
    -1.3650  -1.3650  -1.3650  -1.3650  -1.2169  -1.2169  -1.0230  -1.0230
    -0.6394  -0.6394  -0.6357  -0.6357  -0.5865  -0.5864  -0.5776  -0.5776
    -0.5776  -0.5776  -0.4837  -0.4837   1.6737   1.6737   1.7490   1.7490
     1.7556   1.7556   1.7556   1.7556   1.7717   1.7717   1.7793   1.7793
     2.7826   2.7826   3.2900   3.2900   3.8710   3.8710   4.0116   4.0116
     4.0660   4.0660   4.4147   4.4147   4.4154   4.4155   4.4915   4.4915
     4.6808   4.6808   4.6809   4.6809   4.7350   4.7350   4.8369   4.8371

          k =-0.5000 0.0000 0.2500 ( 75678 PWs)   bands (ev):

   -45.4683 -45.4683 -45.4683 -45.4683 -45.4667 -45.4667 -45.4667 -45.4667
   -45.4667 -45.4667 -45.4667 -45.4666 -45.4666 -45.4666 -45.4666 -45.4666
   -45.4659 -45.4659 -45.4659 -45.4659 -45.4659 -45.4659 -45.4659 -45.4659
   -15.3667 -15.3667 -15.3331 -15.3331 -14.8304 -14.8304 -14.7757 -14.7757
   -11.8798 -11.8798 -11.8798 -11.8797 -11.8797 -11.8797 -11.8797 -11.8797
   -11.7796 -11.7796 -11.7163 -11.7163  -7.8469  -7.8469  -7.7298  -7.7298
    -7.6873  -7.6873  -7.6418  -7.6418  -5.3530  -5.3529  -5.3387  -5.3387
    -5.3215  -5.3214  -5.2987  -5.2986  -4.8651  -4.8650  -4.4793  -4.4792
    -3.4407  -3.4406  -3.1945  -3.1945  -3.1477  -3.1476  -3.0864  -3.0862
    -3.0013  -3.0013  -2.9180  -2.9178  -1.8781  -1.8781  -1.8763  -1.8763
    -1.8732  -1.8732  -1.8568  -1.8568  -1.5348  -1.5348  -1.5338  -1.5338
    -1.3848  -1.3848  -1.2806  -1.2806  -1.2763  -1.2762  -1.0414  -1.0414
    -0.6415  -0.6414  -0.6379  -0.6379  -0.5822  -0.5822  -0.5759  -0.5758
    -0.5671  -0.5671  -0.5037  -0.5036   1.6589   1.6590   1.7148   1.7148
     1.7533   1.7533   1.7581   1.7581   1.7758   1.7758   1.7976   1.7976
     2.8673   2.8674   3.2378   3.2379   3.8593   3.8593   3.8962   3.8962
     4.0960   4.0960   4.3437   4.3437   4.5035   4.5035   4.5773   4.5775
     4.6105   4.6105   4.7341   4.7341   4.8192   4.8192   4.8610   4.8611

          k =-0.5000 0.0000-0.5000 ( 75924 PWs)   bands (ev):

   -45.4683 -45.4683 -45.4683 -45.4683 -45.4667 -45.4667 -45.4667 -45.4667
   -45.4667 -45.4667 -45.4667 -45.4666 -45.4666 -45.4666 -45.4666 -45.4666
   -45.4659 -45.4659 -45.4659 -45.4659 -45.4659 -45.4659 -45.4659 -45.4659
   -15.3507 -15.3507 -15.3507 -15.3507 -14.8024 -14.8024 -14.8024 -14.8024
   -11.8798 -11.8798 -11.8798 -11.8798 -11.8797 -11.8797 -11.8797 -11.8797
   -11.7482 -11.7481 -11.7481 -11.7481  -7.7751  -7.7751  -7.7751  -7.7751
    -7.6797  -7.6797  -7.6797  -7.6797  -5.3461  -5.3461  -5.3460  -5.3460
    -5.3171  -5.3171  -5.3170  -5.3170  -4.6734  -4.6733  -4.6733  -4.6733
    -3.3163  -3.3163  -3.3162  -3.3162  -3.1063  -3.1063  -3.1063  -3.1063
    -2.9668  -2.9668  -2.9667  -2.9666  -1.8791  -1.8791  -1.8791  -1.8791
    -1.8765  -1.8765  -1.8765  -1.8765  -1.4826  -1.4826  -1.4825  -1.4825
    -1.3865  -1.3865  -1.3864  -1.3864  -1.1324  -1.1324  -1.1324  -1.1324
    -0.6414  -0.6414  -0.6414  -0.6413  -0.5756  -0.5756  -0.5755  -0.5755
    -0.5409  -0.5409  -0.5409  -0.5409   1.6676   1.6676   1.6676   1.6676
     1.7523   1.7523   1.7523   1.7523   1.7962   1.7963   1.7963   1.7963
     3.0674   3.0674   3.0675   3.0675   3.8180   3.8181   3.8181   3.8181
     4.2339   4.2339   4.2339   4.2339   4.5757   4.5757   4.5758   4.5758
     4.7089   4.7090   4.7091   4.7092   4.8022   4.8022   4.8022   4.8023

          k =-0.5000 0.2500 0.0000 ( 75678 PWs)   bands (ev):

   -45.4683 -45.4683 -45.4683 -45.4683 -45.4667 -45.4667 -45.4667 -45.4667
   -45.4667 -45.4667 -45.4667 -45.4667 -45.4666 -45.4666 -45.4666 -45.4666
   -45.4659 -45.4659 -45.4659 -45.4659 -45.4659 -45.4659 -45.4659 -45.4659
   -15.3667 -15.3667 -15.3331 -15.3331 -14.8304 -14.8304 -14.7757 -14.7757
   -11.8798 -11.8798 -11.8798 -11.8797 -11.8797 -11.8797 -11.8797 -11.8797
   -11.7796 -11.7796 -11.7163 -11.7163  -7.8469  -7.8469  -7.7298  -7.7298
    -7.6873  -7.6873  -7.6418  -7.6418  -5.3530  -5.3529  -5.3387  -5.3387
    -5.3214  -5.3214  -5.2987  -5.2986  -4.8650  -4.8650  -4.4793  -4.4792
    -3.4407  -3.4407  -3.1945  -3.1945  -3.1477  -3.1476  -3.0863  -3.0863
    -3.0013  -3.0013  -2.9179  -2.9179  -1.8781  -1.8781  -1.8763  -1.8763
    -1.8732  -1.8732  -1.8568  -1.8568  -1.5348  -1.5348  -1.5338  -1.5338
    -1.3848  -1.3848  -1.2806  -1.2806  -1.2762  -1.2762  -1.0414  -1.0414
    -0.6415  -0.6414  -0.6379  -0.6379  -0.5822  -0.5822  -0.5759  -0.5758
    -0.5671  -0.5671  -0.5037  -0.5036   1.6589   1.6589   1.7148   1.7148
     1.7533   1.7533   1.7581   1.7581   1.7758   1.7758   1.7976   1.7976
     2.8673   2.8674   3.2378   3.2379   3.8593   3.8593   3.8962   3.8962
     4.0960   4.0960   4.3437   4.3438   4.5035   4.5035   4.5774   4.5775
     4.6105   4.6106   4.7342   4.7346   4.8192   4.8612   4.8618   4.9734

          k =-0.5000 0.2500 0.2500 ( 75688 PWs)   bands (ev):

   -45.4683 -45.4683 -45.4683 -45.4683 -45.4667 -45.4667 -45.4667 -45.4667
   -45.4667 -45.4667 -45.4667 -45.4666 -45.4666 -45.4666 -45.4666 -45.4666
   -45.4659 -45.4659 -45.4659 -45.4659 -45.4659 -45.4659 -45.4659 -45.4659
   -15.3622 -15.3622 -15.3384 -15.3384 -14.8221 -14.8221 -14.7834 -14.7834
   -11.8798 -11.8798 -11.8797 -11.8797 -11.8797 -11.8797 -11.8797 -11.8797
   -11.7705 -11.7704 -11.7257 -11.7257  -7.8238  -7.8238  -7.7364  -7.7364
    -7.6873  -7.6873  -7.6599  -7.6598  -5.3474  -5.3473  -5.3470  -5.3470
    -5.3292  -5.3292  -5.3115  -5.3115  -4.7916  -4.7916  -4.5164  -4.5164
    -3.4710  -3.4710  -3.2665  -3.2664  -3.1135  -3.1135  -3.0511  -3.0511
    -2.9610  -2.9610  -2.9393  -2.9392  -1.8788  -1.8787  -1.8779  -1.8779
    -1.8743  -1.8743  -1.8661  -1.8661  -1.5051  -1.5051  -1.4993  -1.4993
    -1.3769  -1.3768  -1.3103  -1.3103  -1.2699  -1.2699  -1.0864  -1.0864
    -0.6428  -0.6427  -0.6397  -0.6397  -0.5692  -0.5692  -0.5686  -0.5686
    -0.5568  -0.5567  -0.5150  -0.5150   1.6347   1.6347   1.6717   1.6717
     1.7756   1.7756   1.7778   1.7778   1.7779   1.7780   1.7973   1.7973
     2.9438   2.9439   3.2251   3.2251   3.8349   3.8350   3.8740   3.8740
     3.9929   3.9930   4.2521   4.2522   4.5876   4.5878   4.6282   4.6283
     4.6749   4.6749   4.7432   4.7432   4.8331   4.8413   4.8413   5.0464

          k =-0.5000 0.2500-0.5000 ( 75672 PWs)   bands (ev):

   -45.4683 -45.4683 -45.4683 -45.4683 -45.4667 -45.4667 -45.4667 -45.4667
   -45.4667 -45.4667 -45.4666 -45.4666 -45.4666 -45.4666 -45.4666 -45.4666
   -45.4659 -45.4659 -45.4659 -45.4659 -45.4659 -45.4659 -45.4659 -45.4659
   -15.3507 -15.3507 -15.3507 -15.3507 -14.8024 -14.8024 -14.8024 -14.8024
   -11.8798 -11.8797 -11.8797 -11.8797 -11.8797 -11.8797 -11.8797 -11.8797
   -11.7482 -11.7482 -11.7482 -11.7482  -7.7718  -7.7717  -7.7717  -7.7717
    -7.6828  -7.6828  -7.6828  -7.6828  -5.3461  -5.3461  -5.3461  -5.3461
    -5.3321  -5.3321  -5.3321  -5.3321  -4.6381  -4.6381  -4.6381  -4.6380
    -3.4189  -3.4189  -3.4188  -3.4188  -3.0215  -3.0215  -3.0215  -3.0214
    -2.9667  -2.9667  -2.9666  -2.9666  -1.8782  -1.8782  -1.8782  -1.8782
    -1.8766  -1.8766  -1.8766  -1.8766  -1.4479  -1.4479  -1.4478  -1.4478
    -1.3875  -1.3875  -1.3874  -1.3874  -1.1862  -1.1862  -1.1862  -1.1862
    -0.6427  -0.6427  -0.6426  -0.6426  -0.5562  -0.5562  -0.5562  -0.5561
    -0.5397  -0.5397  -0.5397  -0.5397   1.6298   1.6298   1.6298   1.6299
     1.7798   1.7798   1.7798   1.7798   1.7960   1.7960   1.7960   1.7960
     3.1164   3.1164   3.1165   3.1166   3.7954   3.7955   3.7955   3.7955
     4.0847   4.0848   4.0848   4.0848   4.6577   4.6577   4.6578   4.6579
     4.7671   4.7672   4.7673   4.7673   4.8090   4.8090   5.1240   5.1248

          k =-0.5000 0.2500-0.2500 ( 75688 PWs)   bands (ev):

   -45.4683 -45.4683 -45.4683 -45.4683 -45.4667 -45.4667 -45.4667 -45.4667
   -45.4667 -45.4667 -45.4667 -45.4666 -45.4666 -45.4666 -45.4666 -45.4666
   -45.4659 -45.4659 -45.4659 -45.4659 -45.4659 -45.4659 -45.4659 -45.4659
   -15.3622 -15.3622 -15.3384 -15.3384 -14.8221 -14.8221 -14.7834 -14.7834
   -11.8798 -11.8798 -11.8797 -11.8797 -11.8797 -11.8797 -11.8797 -11.8797
   -11.7705 -11.7705 -11.7257 -11.7257  -7.8238  -7.8238  -7.7364  -7.7364
    -7.6873  -7.6873  -7.6599  -7.6599  -5.3474  -5.3474  -5.3470  -5.3470
    -5.3292  -5.3292  -5.3115  -5.3115  -4.7916  -4.7916  -4.5164  -4.5164
    -3.4710  -3.4709  -3.2665  -3.2664  -3.1135  -3.1135  -3.0511  -3.0510
    -2.9610  -2.9610  -2.9393  -2.9393  -1.8788  -1.8788  -1.8779  -1.8779
    -1.8744  -1.8743  -1.8661  -1.8661  -1.5051  -1.5051  -1.4993  -1.4993
    -1.3768  -1.3768  -1.3103  -1.3103  -1.2700  -1.2700  -1.0864  -1.0864
    -0.6428  -0.6427  -0.6398  -0.6397  -0.5693  -0.5692  -0.5687  -0.5687
    -0.5568  -0.5568  -0.5150  -0.5149   1.6347   1.6347   1.6717   1.6717
     1.7756   1.7756   1.7778   1.7778   1.7780   1.7780   1.7973   1.7973
     2.9438   2.9438   3.2251   3.2252   3.8349   3.8349   3.8739   3.8740
     3.9929   3.9930   4.2521   4.2522   4.5875   4.5879   4.6283   4.6283
     4.6749   4.6750   4.7431   4.7433   4.8334   4.8412   4.8413   5.0453

          k =-0.5000-0.5000 0.0000 ( 75924 PWs)   bands (ev):

   -45.4683 -45.4683 -45.4683 -45.4683 -45.4667 -45.4667 -45.4667 -45.4667
   -45.4667 -45.4667 -45.4667 -45.4667 -45.4666 -45.4666 -45.4666 -45.4666
   -45.4659 -45.4659 -45.4659 -45.4659 -45.4659 -45.4659 -45.4659 -45.4659
   -15.3507 -15.3507 -15.3507 -15.3507 -14.8024 -14.8024 -14.8024 -14.8024
   -11.8798 -11.8798 -11.8798 -11.8798 -11.8797 -11.8797 -11.8797 -11.8797
   -11.7482 -11.7481 -11.7481 -11.7481  -7.7751  -7.7751  -7.7751  -7.7751
    -7.6797  -7.6797  -7.6797  -7.6797  -5.3461  -5.3461  -5.3460  -5.3460
    -5.3171  -5.3171  -5.3171  -5.3170  -4.6734  -4.6733  -4.6733  -4.6733
    -3.3163  -3.3163  -3.3162  -3.3162  -3.1063  -3.1063  -3.1063  -3.1063
    -2.9667  -2.9667  -2.9667  -2.9667  -1.8791  -1.8791  -1.8791  -1.8791
    -1.8765  -1.8765  -1.8765  -1.8765  -1.4826  -1.4826  -1.4826  -1.4825
    -1.3865  -1.3864  -1.3864  -1.3864  -1.1324  -1.1324  -1.1324  -1.1324
    -0.6414  -0.6414  -0.6414  -0.6414  -0.5756  -0.5755  -0.5755  -0.5755
    -0.5409  -0.5409  -0.5409  -0.5409   1.6676   1.6676   1.6676   1.6676
     1.7523   1.7523   1.7523   1.7523   1.7962   1.7963   1.7963   1.7963
     3.0674   3.0674   3.0674   3.0675   3.8181   3.8181   3.8181   3.8181
     4.2339   4.2339   4.2339   4.2339   4.5757   4.5757   4.5757   4.5758
     4.7084   4.7085   4.7085   4.7085   4.8021   4.8022   4.8022   5.0232

          k =-0.5000-0.5000 0.2500 ( 75672 PWs)   bands (ev):

   -45.4683 -45.4683 -45.4683 -45.4683 -45.4667 -45.4667 -45.4667 -45.4667
   -45.4667 -45.4667 -45.4666 -45.4666 -45.4666 -45.4666 -45.4666 -45.4666
   -45.4659 -45.4659 -45.4659 -45.4659 -45.4659 -45.4659 -45.4659 -45.4659
   -15.3507 -15.3507 -15.3507 -15.3507 -14.8024 -14.8024 -14.8024 -14.8024
   -11.8797 -11.8797 -11.8797 -11.8797 -11.8797 -11.8797 -11.8797 -11.8797
   -11.7482 -11.7482 -11.7482 -11.7482  -7.7718  -7.7717  -7.7717  -7.7717
    -7.6828  -7.6828  -7.6828  -7.6828  -5.3461  -5.3461  -5.3461  -5.3461
    -5.3321  -5.3321  -5.3321  -5.3321  -4.6381  -4.6381  -4.6381  -4.6380
    -3.4189  -3.4189  -3.4188  -3.4188  -3.0215  -3.0215  -3.0215  -3.0214
    -2.9667  -2.9667  -2.9666  -2.9666  -1.8782  -1.8782  -1.8782  -1.8782
    -1.8766  -1.8766  -1.8766  -1.8766  -1.4479  -1.4478  -1.4478  -1.4478
    -1.3875  -1.3875  -1.3875  -1.3874  -1.1862  -1.1862  -1.1862  -1.1862
    -0.6427  -0.6427  -0.6426  -0.6426  -0.5562  -0.5562  -0.5562  -0.5562
    -0.5397  -0.5397  -0.5397  -0.5396   1.6298   1.6298   1.6298   1.6298
     1.7798   1.7798   1.7798   1.7798   1.7960   1.7960   1.7960   1.7960
     3.1164   3.1165   3.1165   3.1166   3.7954   3.7955   3.7955   3.7955
     4.0847   4.0848   4.0848   4.0848   4.6577   4.6578   4.6578   4.6578
     4.7671   4.7671   4.7672   4.7672   4.8088   4.8089   4.8093   5.1250

          k =-0.5000-0.5000-0.5000 ( 75552 PWs)   bands (ev):

   -45.4683 -45.4683 -45.4683 -45.4683 -45.4667 -45.4667 -45.4667 -45.4667
   -45.4667 -45.4666 -45.4666 -45.4666 -45.4666 -45.4666 -45.4666 -45.4666
   -45.4659 -45.4659 -45.4659 -45.4659 -45.4659 -45.4659 -45.4659 -45.4659
   -15.3507 -15.3507 -15.3507 -15.3507 -14.8024 -14.8024 -14.8024 -14.8024
   -11.8797 -11.8797 -11.8797 -11.8797 -11.8797 -11.8797 -11.8797 -11.8797
   -11.7483 -11.7483 -11.7483 -11.7482  -7.7681  -7.7681  -7.7681  -7.7681
    -7.6862  -7.6862  -7.6862  -7.6862  -5.3461  -5.3461  -5.3461  -5.3461
    -5.3461  -5.3461  -5.3461  -5.3461  -4.6023  -4.6022  -4.6022  -4.6022
    -3.4930  -3.4930  -3.4930  -3.4929  -2.9667  -2.9667  -2.9667  -2.9667
    -2.9666  -2.9666  -2.9666  -2.9666  -1.8773  -1.8773  -1.8773  -1.8773
    -1.8773  -1.8773  -1.8773  -1.8773  -1.3886  -1.3886  -1.3885  -1.3885
    -1.3885  -1.3885  -1.3884  -1.3884  -1.2625  -1.2625  -1.2625  -1.2624
    -0.6440  -0.6439  -0.6439  -0.6438  -0.5385  -0.5385  -0.5385  -0.5384
    -0.5384  -0.5384  -0.5384  -0.5384   1.6034   1.6034   1.6034   1.6034
     1.7958   1.7958   1.7958   1.7958   1.7958   1.7958   1.7958   1.7958
     3.1770   3.1770   3.1771   3.1772   3.7574   3.7574   3.7574   3.7575
     3.9778   3.9778   3.9778   3.9778   4.7218   4.7218   4.7219   4.7219
     4.8149   4.8149   4.8149   4.8150   4.8150   4.8150   4.8151   4.8151

     the Fermi energy is     2.2589 ev

     WARNING: integrated charge=   240.00509372, expected=   240.00000000

!    total energy              =   -1021.20456010 Ry
     estimated scf accuracy    <          2.6E-10 Ry
     smearing contrib. (-TS)   =       0.00003330 Ry
     internal energy E=F+TS    =   -1021.20459340 Ry

     The total energy is F=E-TS. E is the sum of the following terms:
     one-electron contribution =    -638.37817759 Ry
     hartree contribution      =     345.90806834 Ry
     xc contribution           =    -306.55825880 Ry
     ewald contribution        =    -422.17622535 Ry

     convergence has been achieved in  19 iterations

     negative rho (up, down):  5.731E-02 0.000E+00

     Forces acting on atoms (cartesian axes, Ry/au):

     atom    1 type  2   force =    -0.00001936   -0.00001901   -0.00010878
     atom    2 type  2   force =    -0.00001966   -0.00001906   -0.00011005
     atom    3 type  2   force =     0.00000466   -0.00000281    0.00011201
     atom    4 type  2   force =     0.00000393   -0.00000179    0.00011089
     atom    5 type  2   force =    -0.00011020   -0.00001717   -0.00001767
     atom    6 type  2   force =    -0.00010946   -0.00001659   -0.00001728
     atom    7 type  2   force =     0.00011111   -0.00000619    0.00000774
     atom    8 type  2   force =     0.00011060   -0.00000550    0.00000719
     atom    9 type  2   force =    -0.00001010   -0.00010776   -0.00001098
     atom   10 type  2   force =    -0.00001069   -0.00010891   -0.00001134
     atom   11 type  2   force =    -0.00000417    0.00011185    0.00000516
     atom   12 type  2   force =    -0.00000447    0.00011305    0.00000561
     atom   13 type  2   force =    -0.00001065   -0.00000927   -0.00011001
     atom   14 type  2   force =    -0.00001018   -0.00000860   -0.00010880
     atom   15 type  2   force =     0.00001436   -0.00001352    0.00011057
     atom   16 type  2   force =     0.00001383   -0.00001304    0.00011212
     atom   17 type  2   force =    -0.00000703   -0.00010896   -0.00000584
     atom   18 type  2   force =    -0.00000762   -0.00010767   -0.00000630
     atom   19 type  2   force =     0.00001031    0.00011304   -0.00000969
     atom   20 type  2   force =     0.00000989    0.00011164   -0.00000929
     atom   21 type  2   force =    -0.00011023   -0.00001630   -0.00001700
     atom   22 type  2   force =    -0.00010939   -0.00001633   -0.00001677
     atom   23 type  2   force =     0.00011114   -0.00000396    0.00000595
     atom   24 type  2   force =     0.00011053   -0.00000456    0.00000580
     atom   25 type  3   force =     0.00000453   -0.00000250   -0.00000269
     atom   26 type  3   force =    -0.00000140    0.00000084    0.00000577
     atom   27 type  3   force =     0.00000888   -0.00000439    0.00000101
     atom   28 type  3   force =     0.00000101    0.00000617    0.00000372
     atom   29 type  4   force =     0.00359305    0.00359565    0.00359500
     atom   30 type  4   force =    -0.00359574   -0.00359348    0.00359648
     atom   31 type  4   force =    -0.00359574    0.00359664   -0.00359380
     atom   32 type  4   force =     0.00359101   -0.00358962   -0.00359023
     atom   33 type  4   force =     0.00359440    0.00359437    0.00359316
     atom   34 type  4   force =    -0.00359103   -0.00359055    0.00359273
     atom   35 type  4   force =    -0.00359301    0.00359641   -0.00359424
     atom   36 type  4   force =     0.00359755   -0.00359452   -0.00359554
     atom   37 type  4   force =     0.00359212    0.00359380    0.00359339
     atom   38 type  4   force =    -0.00359388   -0.00359263    0.00359486
     atom   39 type  4   force =    -0.00359660    0.00359887   -0.00359526
     atom   40 type  4   force =     0.00359083   -0.00358834   -0.00358974
     atom   41 type  4   force =     0.00359200    0.00359334    0.00359158
     atom   42 type  4   force =    -0.00359473   -0.00359291    0.00359575
     atom   43 type  4   force =    -0.00359321    0.00359503   -0.00359365
     atom   44 type  4   force =     0.00359647   -0.00359479   -0.00359546
     atom   45 type  4   force =     0.00002524    0.00003174    0.00001014
     atom   46 type  4   force =    -0.00000868    0.00003291    0.00001951
     atom   47 type  4   force =     0.00000785    0.00003051    0.00001118
     atom   48 type  4   force =     0.00000911    0.00003014    0.00002004
     atom   49 type  1   force =     0.00000084    0.00000120    0.00000094
     atom   50 type  1   force =     0.00000097    0.00000097    0.00000070
     atom   51 type  1   force =     0.00000043    0.00000147    0.00000099
     atom   52 type  1   force =     0.00000060    0.00000111    0.00000043

     Total force =     0.024905     Total SCF correction =     0.000044


     Computing stress (Cartesian axis) and pressure


     negative rho (up, down):  5.731E-02 0.000E+00
          total   stress  (Ry/bohr**3)                   (kbar)     P=        4.02
   0.00002732   0.00000000   0.00000001            4.02        0.00        0.00
   0.00000000   0.00002732   0.00000000            0.00        4.02        0.00
   0.00000001   0.00000000   0.00002732            0.00        0.00        4.02


     Writing all to output data dir ./tmp/sp_b.save/ :
     XML data file, charge density, pseudopotentials, collected wavefunctions
 
     init_run     :     15.28s CPU     17.74s WALL (       1 calls)
     electrons    :    525.63s CPU    536.37s WALL (       1 calls)
     forces       :      5.75s CPU      5.38s WALL (       1 calls)
     stress       :     11.44s CPU     11.56s WALL (       1 calls)

     Called by init_run:
     wfcinit      :     11.35s CPU     13.68s WALL (       1 calls)
     potinit      :      0.41s CPU      0.54s WALL (       1 calls)
     hinit0       :      2.36s CPU      1.86s WALL (       1 calls)

     Called by electrons:
     c_bands      :    429.34s CPU    435.22s WALL (      19 calls)
     sum_band     :     80.96s CPU     85.63s WALL (      19 calls)
     v_of_rho     :      3.94s CPU      3.38s WALL (      20 calls)
     newd         :      4.38s CPU      4.38s WALL (      20 calls)
                                        4.38s GPU  (      20 calls)
     mix_rho      :      3.09s CPU      3.67s WALL (      19 calls)

     Called by c_bands:
     init_us_2    :      9.57s CPU      9.59s WALL (    1476 calls)
     cegterg      :    303.94s CPU    304.32s WALL (     684 calls)

     Called by *egterg:
     cdiaghg      :     21.73s CPU     22.11s WALL (    5252 calls)
                                       22.07s GPU  (    5252 calls)
     h_psi        :    206.22s CPU    206.57s WALL (    5288 calls)
                                      206.13s GPU  (    5288 calls)
     s_psi        :      8.25s CPU      8.27s WALL (    5288 calls)
     g_psi        :      0.03s CPU      1.71s WALL (    4568 calls)
                                        1.69s GPU  (    4568 calls)

     Called by h_psi:
     h_psi:calbec :      0.20s CPU     25.50s WALL (    5288 calls)
                                       25.46s GPU  (    5288 calls)
     vloc_psi     :    149.49s CPU    149.68s WALL (    5288 calls)
                                      149.65s GPU  (    5288 calls)
     add_vuspsi   :      5.42s CPU     29.46s WALL (    5288 calls)
                                       29.43s GPU  (    5288 calls)

     General routines
     calbec       :      0.22s CPU      0.22s WALL (    6584 calls)
     fft          :      1.88s CPU      2.03s WALL (     283 calls)
                                        0.22s GPU  (     263 calls)
     ffts         :      0.54s CPU      0.55s WALL (      39 calls)
                                        0.00s GPU  (      19 calls)
     fftw         :      0.70s CPU    120.22s WALL (   48356 calls)
                                      119.93s GPU  (   48356 calls)
     interpolate  :      2.76s CPU      2.82s WALL (      20 calls)
 
     Parallel routines
 
     PWSCF        :   9m24.43s CPU   9m39.33s WALL

 
   This run was terminated on:   2:59: 0  13Sep2026            

=------------------------------------------------------------------------------=
   JOB DONE.
=------------------------------------------------------------------------------=
Warning: ieee_invalid is signaling
Warning: ieee_divide_by_zero is signaling
Warning: ieee_underflow is signaling
Warning: ieee_inexact is signaling
FORTRAN STOP
