P  S  Li Cl S 
 1.0000000000000000
    10.0550956357331884    0.0000000000000000    0.0000000000000000
     0.0000000000000000   10.0550956357331884    0.0000000000000000
     0.0000000000000000    0.0000000000000000   10.0550956357331884
 P   S   Li  Cl  S  
   4  16  24   4   4
Cartesian
  5.1024585900000003  5.0275557700000011  5.0275484400000003
  0.0749106642668111 10.0550932957331884  5.0275435000000002
  0.0749108142668116  5.0275435699999997 10.0550912199999996
  5.1024584999999991  0.0000057200000000 10.0550952900000006
  6.1304497900000001  6.2699558800000004  6.2706061300000000
  1.1028755600000000  1.2423904100000001  6.2706328999999998
  1.1028784199999999  6.2699354899999999  1.2430830600000000
  6.1304578500000009  1.2424024000000000  1.2430539300000001
  3.8722186000000005  3.8167138600000001  6.2386348300000005
  8.8997704500000001  8.8442210800000005  6.2386034500000012
  8.8997666300000002  3.8166750999999999  1.2110544400000001
  3.8722171799999998  8.8442610800000008  1.2110858099999999
  3.8722105099999999  6.2384079200000011  3.8164792900000002
  8.8997540700000002  1.2108450799999999  3.8164735699999999
  8.8997580599999999  6.2383948199999999  8.8440204399999995
  3.8722117000000003  1.2108597000000001  8.8440261299999996
  6.1304316600000002  3.7851528999999999  3.7844770700000003
  1.1029101699999999  8.8127259900000006  3.7844609700000000
  1.1029077000000000  3.7851761499999999  8.8120062600000004
  6.1304234500000012  8.8126958799999997  8.8120197099999995
  2.8051506900000001  4.7676727899999998  2.2175132500000001
  7.8326975299999999  9.7952060900000006  2.2175002500000001
  7.8326698800000001  4.7676661800000000  7.2450709599999996
  2.8051444700000001  9.7952249200000008  7.2450677900000002
  7.8305055400000008  7.8355607000000003  0.2590357700000000
  2.8029472800000002  2.8080163900000001  0.2590516700000000
  2.8029663400000002  7.8355769100000003  5.2866017000000003
  7.8305373400000002  2.8080380100000002  5.2865913200000003
  7.8305841799999998  2.2194707800000000  9.7960197099999995
  2.8029357400000001  7.2471171600000002  9.7960706700000006
  2.8029173100000007  2.2195818500000000  4.7685245900000002
  7.8305547500000010  7.2470425699999996  4.7684784899999997
  2.8052149100000001  5.2874557900000001  7.8376335299999997
  7.8326521900000001  0.2598581800000000  7.8375260300000011
  7.8326774700000010  5.2874129300000003  2.8099992999999999
  2.8052193800000005  0.2599118300000000  2.8100920999999999
  0.2120170200000000  3.4426939100000000  3.4405516100000000
  5.2395978899999998  8.4702061299999993  3.4406241600000000
  5.2395968200000009  3.4426176800000001  8.4682136299999993
  0.2120174300000000  8.4702268899999993  8.4681181300000006
  0.2120541900000000  6.6123648800000003  6.6145297799999998
  5.2395690999999998  1.5849295600000000  6.6144541300000013
  5.2395689699999997  6.6124379199999996  1.5869481500000000
  0.2120532900000000  1.5848036900000000  1.5870000399999999
  9.3438528157331877 10.0550873857331879 10.0550928757331892
  4.3163053299999996  5.0275523700000004  0.0000063400000000
  4.3163051299999999  0.0000110742668123  5.0275434399999996
  9.3438526057331881  5.0275382899999999  5.0275365399999998
  2.1926272600000001  2.5137826200000006  2.5137838000000001
  7.2201762299999999  7.5413129600000000  2.5137631800000002
  7.2201762399999998  2.5137651600000002  7.5413113799999998
  2.1926294700000000  7.5413308600000004  7.5413314400000013
