Li P  S  Cl
 1.0000000000000000
    11.2632635739634424    0.0000011674785135    0.0000022945910638
     0.0000011674785157   11.2632637713045956    0.0000006374226604
     0.0000022945910247    0.0000006374226531   11.2632638189633685
 Li  P   S   Cl 
  24   4  20   4
Cartesian
  2.8155566830962990  2.8155607863008281 -0.3533125584761824
  8.4471814303976789  8.4471874776395079 -0.3533301215296916
  8.4475115004319346  2.8157895643072393 11.6166173474761685
  2.8158474778070612  8.4474517134196034 11.6166016155936500
 -0.3533318933148768  2.8155946063440940  2.8155834699434905
 -0.3533196951117183  8.4472433619193552  8.4472317489616788
 11.6166097089994338  8.4473712178415550  2.8159252682712905
 11.6166015391214099  2.8157488297117843  8.4475485071011125
  2.8156798717986082 -0.3533013607032788  2.8156721165145568
  8.4473019140040098 -0.3533177362866118  8.4472938400442690
  2.8157446675216229 11.6166127045247354  8.4475408969073946
  8.4473711874097059 11.6166312545153225  2.8159158650686296
  2.8156901185338516  8.4473446092059277  5.2783057556522639
  8.4473373797229439  2.8157274062650459  5.2783194800797908
  8.4476584711841145  8.4472536352647047  5.9849701684076786
  2.8160101903895454  2.8156412761723502  5.9849881020910480
  2.8157384676393820  5.2783153407178185  8.4473858816798320
  8.4473494861466722  5.2783316754741785  2.8157346407221486
  2.8159766573502045  5.9849992920608903  2.8156666832947521
  8.4475954907903770  5.9849826405093820  8.4473150053717134
  5.2783030652629179  2.8156126813239735  8.4472326539300298
  5.2783095574744747  8.4472394341609505  2.8156047883655275
  5.9849789497121373  8.4474036327650559  8.4475249483486543
  5.9849690176568453  2.8157637792195418  2.8158931254388024
  5.6316274005652627  5.6316458115396086  5.6316424982004927
  5.6316421050236052  0.0000115698836431  0.0000020383557701
 -0.0000018812158483  5.6316469732376611  0.0000072301251435
  0.0000037067495266  0.0000091346395329  5.6316332392246835
  6.8038862711813373  6.8039284039562986  6.8039205805945864
  4.4593479468177062  4.4593864890340384  6.8039269634017527
  4.4593500659229219  6.8039300390513384  4.4593828093092753
  6.8039084380459220  4.4593754004303472  4.4593667589538972
  6.8039248399534005  1.1722893028614705  1.1722740554991800
  4.4593771474222113 10.0910102760718736  1.1722941156497548
  4.4593889815888810  1.1723058020354391 10.0910009293920169
  6.8039368175785349 10.0910168153791560 10.0909991381785051
  1.1722728339110231  6.8039231548054842  1.1722886644595698
 10.0909974089108996  4.4593781419888403  1.1722954183855432
 10.0910011195817031  6.8039384659537658 10.0910201284717083
  1.1722966814027556  4.4593857249761593 10.0909941962039920
  1.1722766837095058  1.1723020989947013  6.8039018966555886
 10.0909936154806861 10.0910235852430841  6.8039265854704540
 10.0910013573122885  1.1723015726501229  4.4593662357778543
  1.1722867766627454 10.0910101493131634  4.4593664207796042
  0.0003503108510075  0.0003859362628848  0.0001090546003390
 -0.0001460577442004  5.6320372568192667  5.6318829697392729
  5.6317278705766229  0.0003679888096986  5.6317602425035442
  5.6317426859650999  5.6319995887152405  0.0002563507814319
  8.4474538995875648  8.4474563920882524  8.4474508348715300
  2.8158193298774048  2.8158243618224290  8.4474580042625060
  2.8158213223753328  8.4474628026764904  2.8158194845517088
  8.4474498669665401  2.8158320335887925  2.8158261824657873
