558
Lattice="18.204970 0.000000 10.510649 6.068323 17.163827 10.510649 0.000000 0.000000 35.035511" Properties=species:S:1:pos:R:3 pbc="T T T" provenance="3x3x1 supercell of modelc_V0_k663.xyz via tools/ionic/make_md_supercell.py (2026-08-16). min perpendicular width 5.721 -> 17.164 A; uncorrelated MSD limit 8.18 -> 73.65 A2. REASON: lpsocl 600 K beta-bar 0.77 traced to finite size (MSD/limit Nonex). Positions are tiled, NOT re-relaxed."
Li      4.7518364800     2.1634146400    38.1574895300
Li      6.1569995700     0.4983393100    13.0644531800
Li      1.1914745800     2.1204169700    29.1920311700
Li      1.5929771800     3.6234741400    32.4211163300
Li      3.9826987000     3.5554737500    31.0380844600
Li      7.1202914600     5.0787169700     8.6182187300
Li      2.4371175500     0.3133623900     8.1273174600
Li      4.5367521600     1.3222025300    25.1536736800
Li      5.9229091900     5.5346318000    21.7757479200
Li      1.2929913400     0.9148924500     4.7983005600
Li      1.4750925400     3.6423652800    11.2769175800
Li      1.8872221000     3.7103194300    25.5483492600
Li      2.3248329800     0.3119777900    36.0069826700
Li      4.4215295200     1.9998402000    10.1433875100
Li      4.8190415700     2.1303004800    16.8701273300
Li      1.5690367200     3.7166615600    37.0955951300
Li      2.4450068400     0.2942799600    21.9915518700
Li      1.5955361700     3.5800665600    15.9972494400
Li      1.6860700000     3.8384631700    22.6752668000
Li      3.8214534300     0.3916877500    29.8826873400
Li      2.2067122000     0.4322861900    12.0628864100
Li      1.0617101100     1.8483144800    19.0821509100
Li      0.6561153700     0.3722465500    25.2679279400
Li      3.9388125400     0.5943505900    32.5986629200
Li      0.6770476700     0.4860264300    32.0648880000
Li      1.3068331600     3.1355929300     8.4424449400
Li      3.4873493200     5.3578882200    19.0959191600
P       4.2998323200     3.0810699900     6.5812156800
P       4.0789762500     3.0893446700    13.5948065300
P       4.3176667900     2.7125995600    20.5328412300
P       4.5014665100     3.1502735000    27.7239751600
P       4.3830493300     3.1855164100    34.7532892500
S       3.6544952700     1.1457042100     6.2148305600
S       3.9471026400     1.0561233500    13.7401821200
S       4.3333073300     0.6713565100    20.5043244400
S       4.5574931800     1.0854116200    27.7120799100
S       4.4211700600     1.1227860900    34.8660636100
S       2.6773692700     4.3405085300     6.9293746300
S       2.1571769200     3.8369405200    13.6241837900
S       2.3848305700     3.4690860200    20.4264790600
S       2.5292153600     3.7853227300    27.8462693700
S       2.4483856600     3.8872977400    34.7315560300
S       5.2882509700     3.7753852600     4.9069911800
S       5.0294073100     3.6900338800    11.8501599800
S       5.2801185300     3.5462439900    18.9062054500
S       5.2553091900     3.7012760700    25.8900196300
S       5.3842678500     3.7622455400    33.0366528800
S       5.5881064800     3.0957491600     8.2004365400
S       5.0895002000     3.8534170200    15.2307071000
S       5.1942612400     3.3273534200    22.2838691400
S       5.5221647600     4.0297443700    29.2652714800
S       5.3238785600     3.9202668500    36.4345972200
Cl      2.4511899000     1.7341113700     2.8455445600
S       2.0717519600     1.6752096900    10.0495225100
Cl      2.3925467900     1.4044988100    17.1155103500
Cl      2.2904743700     1.7641234800    24.1288517500
S       2.4512473600     1.7748436400    31.2005433700
Cl      0.1870433100     0.1614800100    34.6834922300
Cl      0.1345054800     0.2326062700     7.0050127600
Cl      0.0303260300     0.0161499600    13.6301580500
Cl      0.3312122800     0.0053064800    20.6768959800
Cl      0.0913999000     0.1797342000    27.7257682800
Li      6.7746109210     7.8846903402    41.6610392676
Li      8.1797740110     6.2196150102    16.5680029176
Li      3.2142490210     7.8416926702    32.6955809076
Li      3.6157516210     9.3447498402    35.9246660676
Li      6.0054731410     9.2767494502    34.5416341976
Li      9.1430659010    10.7999926702    12.1217684676
Li      4.4598919910     6.0346380902    11.6308671976
Li      6.5595266010     7.0434782302    28.6572234176
Li      7.9456836310    11.2559075002    25.2792976576
Li      3.3157657810     6.6361681502     8.3018502976
Li      3.4978669810     9.3636409802    14.7804673176
Li      3.9099965410     9.4315951302    29.0518989976
Li      4.3476074210     6.0332534902    39.5105324076
Li      6.4443039610     7.7211159002    13.6469372476
Li      6.8418160110     7.8515761802    20.3736770676
Li      3.5918111610     9.4379372602    40.5991448676
Li      4.4677812810     6.0155556602    25.4951016076
Li      3.6183106110     9.3013422602    19.5007991776
Li      3.7088444410     9.5597388702    26.1788165376
Li      5.8442278710     6.1129634502    33.3862370776
Li      4.2294866410     6.1535618902    15.5664361476
Li      3.0844845510     7.5695901802    22.5857006476
Li      2.6788898110     6.0935222502    28.7714776776
Li      5.9615869810     6.3156262902    36.1022126576
Li      2.6998221110     6.2073021302    35.5684377376
Li      3.3296076010     8.8568686302    11.9459946776
Li      5.5101237610    11.0791639202    22.5994688976
P       6.3226067610     8.8023456902    10.0847654176
P       6.1017506910     8.8106203702    17.0983562676
P       6.3404412310     8.4338752602    24.0363909676
P       6.5242409510     8.8715492002    31.2275248976
P       6.4058237710     8.9067921102    38.2568389876
S       5.6772697110     6.8669799102     9.7183802976
S       5.9698770810     6.7773990502    17.2437318576
S       6.3560817710     6.3926322102    24.0078741776
S       6.5802676210     6.8066873202    31.2156296476
S       6.4439445010     6.8440617902    38.3696133476
S       4.7001437110    10.0617842302    10.4329243676
S       4.1799513610     9.5582162202    17.1277335276
S       4.4076050110     9.1903617202    23.9300287976
S       4.5519898010     9.5065984302    31.3498191076
S       4.4711601010     9.6085734402    38.2351057676
S       7.3110254110     9.4966609602     8.4105409176
S       7.0521817510     9.4113095802    15.3537097176
S       7.3028929710     9.2675196902    22.4097551876
S       7.2780836310     9.4225517702    29.3935693676
S       7.4070422910     9.4835212402    36.5402026176
S       7.6108809210     8.8170248602    11.7039862776
S       7.1122746410     9.5746927202    18.7342568376
S       7.2170356810     9.0486291202    25.7874188776
S       7.5449392010     9.7510200702    32.7688212176
S       7.3466530010     9.6415425502    39.9381469576
Cl      4.4739643410     7.4553870702     6.3490942976
S       4.0945264010     7.3964853902    13.5530722476
Cl      4.4153212310     7.1257745102    20.6190600876
Cl      4.3132488110     7.4853991802    27.6324014876
S       4.4740218010     7.4961193402    34.7040931076
Cl      2.2098177510     5.8827557102    38.1870419676
Cl      2.1572799210     5.9538819702    10.5085624976
Cl      2.0531004710     5.7374256602    17.1337077876
Cl      2.3539867210     5.7265821802    24.1804457176
Cl      2.1141743410     5.9010099002    31.2293180176
Li      8.7973853620    13.6059660405    45.1645890052
Li     10.2025484520    11.9408907105    20.0715526552
Li      5.2370234620    13.5629683705    36.1991306452
Li      5.6385260620    15.0660255405    39.4282158052
Li      8.0282475820    14.9980251505    38.0451839352
Li     11.1658403420    16.5212683705    15.6253182052
Li      6.4826664320    11.7559137905    15.1344169352
Li      8.5823010420    12.7647539305    32.1607731552
Li      9.9684580720    16.9771832005    28.7828473952
Li      5.3385402220    12.3574438505    11.8054000352
Li      5.5206414220    15.0849166805    18.2840170552
Li      5.9327709820    15.1528708305    32.5554487352
Li      6.3703818620    11.7545291905    43.0140821452
Li      8.4670784020    13.4423916005    17.1504869852
Li      8.8645904520    13.5728518805    23.8772268052
Li      5.6145856020    15.1592129605    44.1026946052
Li      6.4905557220    11.7368313605    28.9986513452
Li      5.6410850520    15.0226179605    23.0043489152
Li      5.7316188820    15.2810145705    29.6823662752
Li      7.8670023120    11.8342391505    36.8897868152
Li      6.2522610820    11.8748375905    19.0699858852
Li      5.1072589920    13.2908658805    26.0892503852
Li      4.7016642520    11.8147979505    32.2750274152
Li      7.9843614220    12.0369019905    39.6057623952
Li      4.7225965520    11.9285778305    39.0719874752
Li      5.3523820420    14.5781443305    15.4495444152
Li      7.5328982020    16.8004396205    26.1030186352
P       8.3453812020    14.5236213905    13.5883151552
P       8.1245251320    14.5318960705    20.6019060052
P       8.3632156720    14.1551509605    27.5399407052
P       8.5470153920    14.5928249005    34.7310746352
P       8.4285982120    14.6280678105    41.7603887252
S       7.7000441520    12.5882556105    13.2219300352
S       7.9926515220    12.4986747505    20.7472815952
S       8.3788562120    12.1139079105    27.5114239152
S       8.6030420620    12.5279630205    34.7191793852
S       8.4667189420    12.5653374905    41.8731630852
S       6.7229181520    15.7830599305    13.9364741052
S       6.2027258020    15.2794919205    20.6312832652
S       6.4303794520    14.9116374205    27.4335785352
S       6.5747642420    15.2278741305    34.8533688452
S       6.4939345420    15.3298491405    41.7386555052
S       9.3337998520    15.2179366605    11.9140906552
S       9.0749561920    15.1325852805    18.8572594552
S       9.3256674120    14.9887953905    25.9133049252
S       9.3008580720    15.1438274705    32.8971191052
S       9.4298167320    15.2047969405    40.0437523552
S       9.6336553620    14.5383005605    15.2075360152
S       9.1350490820    15.2959684205    22.2378065752
S       9.2398101220    14.7699048205    29.2909686152
S       9.5677136420    15.4722957705    36.2723709552
S       9.3694274420    15.3628182505    43.4416966952
Cl      6.4967387820    13.1766627705     9.8526440352
S       6.1173008420    13.1177610905    17.0566219852
Cl      6.4380956720    12.8470502105    24.1226098252
Cl      6.3360232520    13.2066748805    31.1359512252
S       6.4967962420    13.2173950405    38.2076428452
Cl      4.2325921920    11.6040314105    41.6905917052
Cl      4.1800543620    11.6751576705    14.0121122352
Cl      4.0758749120    11.4587013605    20.6372575252
Cl      4.3767611620    11.4478578805    27.6839954552
Cl      4.1369487820    11.6222856005    34.7328677552
Li     10.8201598030     2.1634146400    41.6610392676
Li     12.2253228930     0.4983393100    16.5680029176
Li      7.2597979030     2.1204169700    32.6955809076
Li      7.6613005030     3.6234741400    35.9246660676
Li     10.0510220230     3.5554737500    34.5416341976
Li     13.1886147830     5.0787169700    12.1217684676
Li      8.5054408730     0.3133623900    11.6308671976
Li     10.6050754830     1.3222025300    28.6572234176
Li     11.9912325130     5.5346318000    25.2792976576
Li      7.3613146630     0.9148924500     8.3018502976
Li      7.5434158630     3.6423652800    14.7804673176
Li      7.9555454230     3.7103194300    29.0518989976
Li      8.3931563030     0.3119777900    39.5105324076
Li     10.4898528430     1.9998402000    13.6469372476
Li     10.8873648930     2.1303004800    20.3736770676
Li      7.6373600430     3.7166615600    40.5991448676
Li      8.5133301630     0.2942799600    25.4951016076
Li      7.6638594930     3.5800665600    19.5007991776
Li      7.7543933230     3.8384631700    26.1788165376
Li      9.8897767530     0.3916877500    33.3862370776
Li      8.2750355230     0.4322861900    15.5664361476
Li      7.1300334330     1.8483144800    22.5857006476
Li      6.7244386930     0.3722465500    28.7714776776
Li     10.0071358630     0.5943505900    36.1022126576
Li      6.7453709930     0.4860264300    35.5684377376
Li      7.3751564830     3.1355929300    11.9459946776
Li      9.5556726430     5.3578882200    22.5994688976
P      10.3681556430     3.0810699900    10.0847654176
P      10.1472995730     3.0893446700    17.0983562676
P      10.3859901130     2.7125995600    24.0363909676
P      10.5697898330     3.1502735000    31.2275248976
P      10.4513726530     3.1855164100    38.2568389876
S       9.7228185930     1.1457042100     9.7183802976
S      10.0154259630     1.0561233500    17.2437318576
S      10.4016306530     0.6713565100    24.0078741776
S      10.6258165030     1.0854116200    31.2156296476
S      10.4894933830     1.1227860900    38.3696133476
S       8.7456925930     4.3405085300    10.4329243676
S       8.2255002430     3.8369405200    17.1277335276
S       8.4531538930     3.4690860200    23.9300287976
S       8.5975386830     3.7853227300    31.3498191076
S       8.5167089830     3.8872977400    38.2351057676
S      11.3565742930     3.7753852600     8.4105409176
S      11.0977306330     3.6900338800    15.3537097176
S      11.3484418530     3.5462439900    22.4097551876
S      11.3236325130     3.7012760700    29.3935693676
S      11.4525911730     3.7622455400    36.5402026176
S      11.6564298030     3.0957491600    11.7039862776
S      11.1578235230     3.8534170200    18.7342568376
S      11.2625845630     3.3273534200    25.7874188776
S      11.5904880830     4.0297443700    32.7688212176
S      11.3922018830     3.9202668500    39.9381469576
Cl      8.5195132230     1.7341113700     6.3490942976
S       8.1400752830     1.6752096900    13.5530722476
Cl      8.4608701130     1.4044988100    20.6190600876
Cl      8.3587976930     1.7641234800    27.6324014876
S       8.5195706830     1.7748436400    34.7040931076
Cl      6.2553666330     0.1614800100    38.1870419676
Cl      6.2028288030     0.2326062700    10.5085624976
Cl      6.0986493530     0.0161499600    17.1337077876
Cl      6.3995356030     0.0053064800    24.1804457176
Cl      6.1597232230     0.1797342000    31.2293180176
Li     12.8429342441     7.8846903402    45.1645890052
Li     14.2480973341     6.2196150102    20.0715526552
Li      9.2825723441     7.8416926702    36.1991306452
Li      9.6840749441     9.3447498402    39.4282158052
Li     12.0737964641     9.2767494502    38.0451839352
Li     15.2113892241    10.7999926702    15.6253182052
Li     10.5282153141     6.0346380902    15.1344169352
Li     12.6278499241     7.0434782302    32.1607731552
Li     14.0140069541    11.2559075002    28.7828473952
Li      9.3840891041     6.6361681502    11.8054000352
Li      9.5661903041     9.3636409802    18.2840170552
Li      9.9783198641     9.4315951302    32.5554487352
Li     10.4159307441     6.0332534902    43.0140821452
Li     12.5126272841     7.7211159002    17.1504869852
Li     12.9101393341     7.8515761802    23.8772268052
Li      9.6601344841     9.4379372602    44.1026946052
Li     10.5361046041     6.0155556602    28.9986513452
Li      9.6866339341     9.3013422602    23.0043489152
Li      9.7771677641     9.5597388702    29.6823662752
Li     11.9125511941     6.1129634502    36.8897868152
Li     10.2978099641     6.1535618902    19.0699858852
Li      9.1528078741     7.5695901802    26.0892503852
Li      8.7472131341     6.0935222502    32.2750274152
Li     12.0299103041     6.3156262902    39.6057623952
Li      8.7681454341     6.2073021302    39.0719874752
Li      9.3979309241     8.8568686302    15.4495444152
Li     11.5784470841    11.0791639202    26.1030186352
P      12.3909300841     8.8023456902    13.5883151552
P      12.1700740141     8.8106203702    20.6019060052
P      12.4087645541     8.4338752602    27.5399407052
P      12.5925642741     8.8715492002    34.7310746352
P      12.4741470941     8.9067921102    41.7603887252
S      11.7455930341     6.8669799102    13.2219300352
S      12.0382004041     6.7773990502    20.7472815952
S      12.4244050941     6.3926322102    27.5114239152
S      12.6485909441     6.8066873202    34.7191793852
S      12.5122678241     6.8440617902    41.8731630852
S      10.7684670341    10.0617842302    13.9364741052
S      10.2482746841     9.5582162202    20.6312832652
S      10.4759283341     9.1903617202    27.4335785352
S      10.6203131241     9.5065984302    34.8533688452
S      10.5394834241     9.6085734402    41.7386555052
S      13.3793487341     9.4966609602    11.9140906552
S      13.1205050741     9.4113095802    18.8572594552
S      13.3712162941     9.2675196902    25.9133049252
S      13.3464069541     9.4225517702    32.8971191052
S      13.4753656141     9.4835212402    40.0437523552
S      13.6792042441     8.8170248602    15.2075360152
S      13.1805979641     9.5746927202    22.2378065752
S      13.2853590041     9.0486291202    29.2909686152
S      13.6132625241     9.7510200702    36.2723709552
S      13.4149763241     9.6415425502    43.4416966952
Cl     10.5422876641     7.4553870702     9.8526440352
S      10.1628497241     7.3964853902    17.0566219852
Cl     10.4836445541     7.1257745102    24.1226098252
Cl     10.3815721341     7.4853991802    31.1359512252
S      10.5423451241     7.4961193402    38.2076428452
Cl      8.2781410741     5.8827557102    41.6905917052
Cl      8.2256032441     5.9538819702    14.0121122352
Cl      8.1214237941     5.7374256602    20.6372575252
Cl      8.4223100441     5.7265821802    27.6839954552
Cl      8.1824976641     5.9010099002    34.7328677552
Li     14.8657086851    13.6059660405    48.6681387429
Li     16.2708717751    11.9408907105    23.5751023929
Li     11.3053467851    13.5629683705    39.7026803829
Li     11.7068493851    15.0660255405    42.9317655429
Li     14.0965709051    14.9980251505    41.5487336729
Li     17.2341636651    16.5212683705    19.1288679429
Li     12.5509897551    11.7559137905    18.6379666729
Li     14.6506243651    12.7647539305    35.6643228929
Li     16.0367813951    16.9771832005    32.2863971329
Li     11.4068635451    12.3574438505    15.3089497729
Li     11.5889647451    15.0849166805    21.7875667929
Li     12.0010943051    15.1528708305    36.0589984729
Li     12.4387051851    11.7545291905    46.5176318829
Li     14.5354017251    13.4423916005    20.6540367229
Li     14.9329137751    13.5728518805    27.3807765429
Li     11.6829089251    15.1592129605    47.6062443429
Li     12.5588790451    11.7368313605    32.5022010829
Li     11.7094083751    15.0226179605    26.5078986529
Li     11.7999422051    15.2810145705    33.1859160129
Li     13.9353256351    11.8342391505    40.3933365529
Li     12.3205844051    11.8748375905    22.5735356229
Li     11.1755823151    13.2908658805    29.5928001229
Li     10.7699875751    11.8147979505    35.7785771529
Li     14.0526847451    12.0369019905    43.1093121329
Li     10.7909198751    11.9285778305    42.5755372129
Li     11.4207053651    14.5781443305    18.9530941529
Li     13.6012215251    16.8004396205    29.6065683729
P      14.4137045251    14.5236213905    17.0918648929
P      14.1928484551    14.5318960705    24.1054557429
P      14.4315389951    14.1551509605    31.0434904429
P      14.6153387151    14.5928249005    38.2346243729
P      14.4969215351    14.6280678105    45.2639384629
S      13.7683674751    12.5882556105    16.7254797729
S      14.0609748451    12.4986747505    24.2508313329
S      14.4471795351    12.1139079105    31.0149736529
S      14.6713653851    12.5279630205    38.2227291229
S      14.5350422651    12.5653374905    45.3767128229
S      12.7912414751    15.7830599305    17.4400238429
S      12.2710491251    15.2794919205    24.1348330029
S      12.4987027751    14.9116374205    30.9371282729
S      12.6430875651    15.2278741305    38.3569185829
S      12.5622578651    15.3298491405    45.2422052429
S      15.4021231751    15.2179366605    15.4176403929
S      15.1432795151    15.1325852805    22.3608091929
S      15.3939907351    14.9887953905    29.4168546629
S      15.3691813951    15.1438274705    36.4006688429
S      15.4981400551    15.2047969405    43.5473020929
S      15.7019786851    14.5383005605    18.7110857529
S      15.2033724051    15.2959684205    25.7413563129
S      15.3081334451    14.7699048205    32.7945183529
S      15.6360369651    15.4722957705    39.7759206929
S      15.4377507651    15.3628182505    46.9452464329
Cl     12.5650621051    13.1766627705    13.3561937729
S      12.1856241651    13.1177610905    20.5601717229
Cl     12.5064189951    12.8470502105    27.6261595629
Cl     12.4043465751    13.2066748805    34.6395009629
S      12.5651195651    13.2173950405    41.7111925829
Cl     10.3009155151    11.6040314105    45.1941414429
Cl     10.2483776851    11.6751576705    17.5156619729
Cl     10.1441982351    11.4587013605    24.1408072629
Cl     10.4450844851    11.4478578805    31.1875451929
Cl     10.2052721051    11.6222856005    38.2364174929
Li     16.8884831261     2.1634146400    45.1645890052
Li     18.2936462161     0.4983393100    20.0715526552
Li     13.3281212261     2.1204169700    36.1991306452
Li     13.7296238261     3.6234741400    39.4282158052
Li     16.1193453461     3.5554737500    38.0451839352
Li     19.2569381061     5.0787169700    15.6253182052
Li     14.5737641961     0.3133623900    15.1344169352
Li     16.6733988061     1.3222025300    32.1607731552
Li     18.0595558361     5.5346318000    28.7828473952
Li     13.4296379861     0.9148924500    11.8054000352
Li     13.6117391861     3.6423652800    18.2840170552
Li     14.0238687461     3.7103194300    32.5554487352
Li     14.4614796261     0.3119777900    43.0140821452
Li     16.5581761661     1.9998402000    17.1504869852
Li     16.9556882161     2.1303004800    23.8772268052
Li     13.7056833661     3.7166615600    44.1026946052
Li     14.5816534861     0.2942799600    28.9986513452
Li     13.7321828161     3.5800665600    23.0043489152
Li     13.8227166461     3.8384631700    29.6823662752
Li     15.9581000761     0.3916877500    36.8897868152
Li     14.3433588461     0.4322861900    19.0699858852
Li     13.1983567561     1.8483144800    26.0892503852
Li     12.7927620161     0.3722465500    32.2750274152
Li     16.0754591861     0.5943505900    39.6057623952
Li     12.8136943161     0.4860264300    39.0719874752
Li     13.4434798061     3.1355929300    15.4495444152
Li     15.6239959661     5.3578882200    26.1030186352
P      16.4364789661     3.0810699900    13.5883151552
P      16.2156228961     3.0893446700    20.6019060052
P      16.4543134361     2.7125995600    27.5399407052
P      16.6381131561     3.1502735000    34.7310746352
P      16.5196959761     3.1855164100    41.7603887252
S      15.7911419161     1.1457042100    13.2219300352
S      16.0837492861     1.0561233500    20.7472815952
S      16.4699539761     0.6713565100    27.5114239152
S      16.6941398261     1.0854116200    34.7191793852
S      16.5578167061     1.1227860900    41.8731630852
S      14.8140159161     4.3405085300    13.9364741052
S      14.2938235661     3.8369405200    20.6312832652
S      14.5214772161     3.4690860200    27.4335785352
S      14.6658620061     3.7853227300    34.8533688452
S      14.5850323061     3.8872977400    41.7386555052
S      17.4248976161     3.7753852600    11.9140906552
S      17.1660539561     3.6900338800    18.8572594552
S      17.4167651761     3.5462439900    25.9133049252
S      17.3919558361     3.7012760700    32.8971191052
S      17.5209144961     3.7622455400    40.0437523552
S      17.7247531261     3.0957491600    15.2075360152
S      17.2261468461     3.8534170200    22.2378065752
S      17.3309078861     3.3273534200    29.2909686152
S      17.6588114061     4.0297443700    36.2723709552
S      17.4605252061     3.9202668500    43.4416966952
Cl     14.5878365461     1.7341113700     9.8526440352
S      14.2083986061     1.6752096900    17.0566219852
Cl     14.5291934361     1.4044988100    24.1226098252
Cl     14.4271210161     1.7641234800    31.1359512252
S      14.5878940061     1.7748436400    38.2076428452
Cl     12.3236899561     0.1614800100    41.6905917052
Cl     12.2711521261     0.2326062700    14.0121122352
Cl     12.1669726761     0.0161499600    20.6372575252
Cl     12.4678589261     0.0053064800    27.6839954552
Cl     12.2280465461     0.1797342000    34.7328677552
Li     18.9112575671     7.8846903402    48.6681387429
Li     20.3164206571     6.2196150102    23.5751023929
Li     15.3508956671     7.8416926702    39.7026803829
Li     15.7523982671     9.3447498402    42.9317655429
Li     18.1421197871     9.2767494502    41.5487336729
Li     21.2797125471    10.7999926702    19.1288679429
Li     16.5965386371     6.0346380902    18.6379666729
Li     18.6961732471     7.0434782302    35.6643228929
Li     20.0823302771    11.2559075002    32.2863971329
Li     15.4524124271     6.6361681502    15.3089497729
Li     15.6345136271     9.3636409802    21.7875667929
Li     16.0466431871     9.4315951302    36.0589984729
Li     16.4842540671     6.0332534902    46.5176318829
Li     18.5809506071     7.7211159002    20.6540367229
Li     18.9784626571     7.8515761802    27.3807765429
Li     15.7284578071     9.4379372602    47.6062443429
Li     16.6044279271     6.0155556602    32.5022010829
Li     15.7549572571     9.3013422602    26.5078986529
Li     15.8454910871     9.5597388702    33.1859160129
Li     17.9808745171     6.1129634502    40.3933365529
Li     16.3661332871     6.1535618902    22.5735356229
Li     15.2211311971     7.5695901802    29.5928001229
Li     14.8155364571     6.0935222502    35.7785771529
Li     18.0982336271     6.3156262902    43.1093121329
Li     14.8364687571     6.2073021302    42.5755372129
Li     15.4662542471     8.8568686302    18.9530941529
Li     17.6467704071    11.0791639202    29.6065683729
P      18.4592534071     8.8023456902    17.0918648929
P      18.2383973371     8.8106203702    24.1054557429
P      18.4770878771     8.4338752602    31.0434904429
P      18.6608875971     8.8715492002    38.2346243729
P      18.5424704171     8.9067921102    45.2639384629
S      17.8139163571     6.8669799102    16.7254797729
S      18.1065237271     6.7773990502    24.2508313329
S      18.4927284171     6.3926322102    31.0149736529
S      18.7169142671     6.8066873202    38.2227291229
S      18.5805911471     6.8440617902    45.3767128229
S      16.8367903571    10.0617842302    17.4400238429
S      16.3165980071     9.5582162202    24.1348330029
S      16.5442516571     9.1903617202    30.9371282729
S      16.6886364471     9.5065984302    38.3569185829
S      16.6078067471     9.6085734402    45.2422052429
S      19.4476720571     9.4966609602    15.4176403929
S      19.1888283971     9.4113095802    22.3608091929
S      19.4395396171     9.2675196902    29.4168546629
S      19.4147302771     9.4225517702    36.4006688429
S      19.5436889371     9.4835212402    43.5473020929
S      19.7475275671     8.8170248602    18.7110857529
S      19.2489212871     9.5746927202    25.7413563129
S      19.3536823271     9.0486291202    32.7945183529
S      19.6815858471     9.7510200702    39.7759206929
S      19.4832996471     9.6415425502    46.9452464329
Cl     16.6106109871     7.4553870702    13.3561937729
S      16.2311730471     7.3964853902    20.5601717229
Cl     16.5519678771     7.1257745102    27.6261595629
Cl     16.4498954571     7.4853991802    34.6395009629
S      16.6106684471     7.4961193402    41.7111925829
Cl     14.3464643971     5.8827557102    45.1941414429
Cl     14.2939265671     5.9538819702    17.5156619729
Cl     14.1897471171     5.7374256602    24.1408072629
Cl     14.4906333671     5.7265821802    31.1875451929
Cl     14.2508209871     5.9010099002    38.2364174929
Li     20.9340320081    13.6059660405    52.1716884805
Li     22.3391950981    11.9408907105    27.0786521305
Li     17.3736701081    13.5629683705    43.2062301205
Li     17.7751727081    15.0660255405    46.4353152805
Li     20.1648942281    14.9980251505    45.0522834105
Li     23.3024869881    16.5212683705    22.6324176805
Li     18.6193130781    11.7559137905    22.1415164105
Li     20.7189476881    12.7647539305    39.1678726305
Li     22.1051047181    16.9771832005    35.7899468705
Li     17.4751868681    12.3574438505    18.8124995105
Li     17.6572880681    15.0849166805    25.2911165305
Li     18.0694176281    15.1528708305    39.5625482105
Li     18.5070285081    11.7545291905    50.0211816205
Li     20.6037250481    13.4423916005    24.1575864605
Li     21.0012370981    13.5728518805    30.8843262805
Li     17.7512322481    15.1592129605    51.1097940805
Li     18.6272023681    11.7368313605    36.0057508205
Li     17.7777316981    15.0226179605    30.0114483905
Li     17.8682655281    15.2810145705    36.6894657505
Li     20.0036489581    11.8342391505    43.8968862905
Li     18.3889077281    11.8748375905    26.0770853605
Li     17.2439056381    13.2908658805    33.0963498605
Li     16.8383108981    11.8147979505    39.2821268905
Li     20.1210080681    12.0369019905    46.6128618705
Li     16.8592431981    11.9285778305    46.0790869505
Li     17.4890286881    14.5781443305    22.4566438905
Li     19.6695448481    16.8004396205    33.1101181105
P      20.4820278481    14.5236213905    20.5954146305
P      20.2611717781    14.5318960705    27.6090054805
P      20.4998623181    14.1551509605    34.5470401805
P      20.6836620381    14.5928249005    41.7381741105
P      20.5652448581    14.6280678105    48.7674882005
S      19.8366907981    12.5882556105    20.2290295105
S      20.1292981681    12.4986747505    27.7543810705
S      20.5155028581    12.1139079105    34.5185233905
S      20.7396887081    12.5279630205    41.7262788605
S      20.6033655881    12.5653374905    48.8802625605
S      18.8595647981    15.7830599305    20.9435735805
S      18.3393724481    15.2794919205    27.6383827405
S      18.5670260981    14.9116374205    34.4406780105
S      18.7114108881    15.2278741305    41.8604683205
S      18.6305811881    15.3298491405    48.7457549805
S      21.4704464981    15.2179366605    18.9211901305
S      21.2116028381    15.1325852805    25.8643589305
S      21.4623140581    14.9887953905    32.9204044005
S      21.4375047181    15.1438274705    39.9042185805
S      21.5664633781    15.2047969405    47.0508518305
S      21.7703020081    14.5383005605    22.2146354905
S      21.2716957281    15.2959684205    29.2449060505
S      21.3764567681    14.7699048205    36.2980680905
S      21.7043602881    15.4722957705    43.2794704305
S      21.5060740881    15.3628182505    50.4487961705
Cl     18.6333854281    13.1766627705    16.8597435105
S      18.2539474881    13.1177610905    24.0637214605
Cl     18.5747423181    12.8470502105    31.1297093005
Cl     18.4726698981    13.2066748805    38.1430507005
S      18.6334428881    13.2173950405    45.2147423205
Cl     16.3692388381    11.6040314105    48.6976911805
Cl     16.3167010081    11.6751576705    21.0192117105
Cl     16.2125215581    11.4587013605    27.6443570005
Cl     16.5134078081    11.4478578805    34.6910949305
Cl     16.2735954281    11.6222856005    41.7399672305
