199
Coordinates from ORCA-job n6_doped E -10051.064688600258
  C          10.98877509912012     28.89969960603569     21.11458757615630
  C          10.67161145954216     29.00666354323724     19.62489045084413
  C          10.44352586445294     30.45451505526801     19.19339324925978
  C          10.30452763953139     30.68370721282549     17.69271864054273
  C          12.58711070812348     30.95601805598959     16.98062892479288
  C          13.79420181596804     30.10978630545829     17.33237303182853
  C          13.85696668937935     28.82151560141876     16.52884907051845
  C          15.22339467250468     27.96379262970472     18.19294466032737
  C          16.02289571670235     27.00896413478733     18.79035969488200
  C          14.82285134147465     28.49335911106950     20.43089230868095
  C          14.55627403372504     28.80633313347053     19.12754237796380
  C          23.10892170584519     22.07549463500089     15.05814284015415
  C          22.87821569731720     23.57967482342375     15.18544196932823
  C          22.93399348154108     24.28869975236801     13.83312303121429
  C          22.55631430541289     25.76897596929149     13.84317537238054
  C          20.17147127364574     25.66629833548582     13.79323541848506
  C          18.97003238789481     25.77986495790645     14.70479711187858
  C          18.89061940270336     27.10577118139778     15.44380788444583
  C          17.56591796481393     26.04950894350433     17.02073194526823
  C          16.81641580446457     25.98954345622328     18.18071872630236
  C          18.07854331062540     23.84739957721063     17.67919506908898
  C          18.25500580498227     24.85099123708313     16.73825220087167
  C          19.03290778271532     15.98424314600172     16.78378965194806
  C          17.84476653902826     16.36489274832261     17.65981479176597
  C          17.83109227247681     15.64317162147892     19.00540326003352
  C          16.88136841470040     16.23545351731639     20.03929343587375
  C          18.12998955487292     18.09813144641374     20.90630858181661
  C          18.54376794525951     19.47674080676023     20.42619564443774
  C          17.35797777308171     20.41493722518383     20.26627705600868
  C          18.55100105917500     21.57083133317475     18.65782189592130
  C          18.66263589573519     22.55593986216250     17.68630959959921
  C          19.97750182518712     20.44673313362794     17.18809591199773
  C          19.28075404717446     20.39748361783906     18.38411628372267
  C          22.53937664136343     12.05871205742720     15.79028028256073
  C          21.94238401452866     12.82015562311256     16.96610211155914
  C          22.71082397584023     12.52407031529131     18.25502825403965
  C          22.35280915728687     13.40176520692245     19.45142254115734
  C          23.61910355191939     15.38806085967452     18.98043044023449
  C          23.42088059513410     16.79574552339057     18.44791398035090
  C          22.33882867951565     17.54138090192814     19.21506475522473
  C          21.71860973161452     18.64580558287043     17.30958125913107
  C          20.79523990431872     19.42177010718555     16.63397132082950
  C          21.81987533020158     17.58933156537900     15.21988484162317
  C          22.28846180512305     17.61802420786075     16.52968498205156
  C          23.87582538837890      8.72428085087179     12.89823861542562
  C          24.68376886197836      9.66472629031935     13.78899675726521
  C          26.04342869915396     10.01276543768882     13.18516908739186
  C          26.82473437380613     11.09464772210082     13.92280908485860
  C          26.08740384658195     13.10449391124565     12.88813247231784
  C          25.11388727522223     14.24718555905088     13.05138962574655
  C          25.24348941986314     14.97129727423721     14.38299354133247
  C          23.09253980438522     15.74342663223726     14.04254539215701
  C          21.96255057003039     16.50822975688091     14.31013824538561
  C          21.45558386105517     14.37878152575038     13.04947662257887
  C          22.81885533566963     14.58485170274376     13.30122548971348
  C          17.04718346074904      9.33606315169428      9.85242401134824
  C          15.97165050568400     10.21591810465768     10.48565435769916
  C          15.25028866082012      9.50613924501176     11.63027004178358
  C          14.35703798082438     10.39356103770850     12.49232996194617
  C          15.88829980589269     11.26703619259191     14.12753246105446
  C          17.27592575180658     11.82464840873210     13.92150120606458
  C          17.24554612885184     13.27949064875091     13.50495008169071
  C          19.46996208784073     12.88553173708110     12.82431272565850
  C          20.81946038884217     13.19886380221880     12.61950566048897
  C          20.23450880796110     10.79768772736850     12.16385997771894
  C          19.16367460941082     11.51781121415479     12.61288877072860
  S           9.19061583102458     27.96621573260013     19.30380013487787
  S          15.92979232810305     27.16536047175010     20.53679447257844
  S          24.14828792676590     24.23403719766233     16.34194344284955
  S          16.97782681142193     24.41016586465085     18.93244020693377
  S          16.34771924476701     16.00458628401568     16.65908348847418
  S          19.70614121900705     21.98216222162259     16.38675672190061
  S          20.15882971174734     12.33990395213206     17.08527670893979
  S          20.67388391136026     18.89733844178595     14.95936010211775
  S          24.88769555207196      8.83751533402846     15.42605178062090
  S          20.53178518120212     15.75642861316954     13.62573274712879
  S          14.81318431603654     10.71732536719556      9.15153471963589
  S          21.67265914118510     11.76896537216379     12.03798334717083
  O           7.98790642205103     28.75624528438009     19.54852763473374
  O           9.38602186361855     26.64482011676134     19.90889542312490
  O           9.26266009344868     27.74701613035629     17.65994234885480
  O          11.41265866741538     30.15938595377740     16.95566006371246
  O          15.04087751784981     28.07058017528255     16.85186404241999
  O          13.70982727709518     29.80707102333941     18.74323895669778
  O          25.36449155277543     24.54538959638903     15.59700870597270
  O          24.16514719877419     23.40281282696932     17.54842946210391
  O          23.52802424018777     25.70783490358860     16.77494347905470
  O          21.32628552146141     26.03092960947435     14.52298384953485
  O          17.69981162628603     27.16243798249863     16.25139126703896
  O          19.06677708834331     24.69717504691626     15.66001946644837
  O          16.00412629229034     14.58706131250804     16.73992905125132
  O          16.46730888453246     16.67681367576618     15.35694252370910
  O          15.14261579366822     16.79881549195577     17.48925006920452
  O          17.01356064194741     17.66389275041290     20.15536458197839
  O          17.78188341272560     21.70478639020396     19.77035569874009
  O          19.22198997082492     19.29037227719969     19.15815782506688
  O          20.15946435832053     10.86631047255810     17.27790638983922
  O          19.59688341734642     12.77415544003855     15.75599500676031
  O          19.58919879485458     13.11837726165015     18.22583569545217
  O          22.34795891514139     14.80496727877801     19.14652216060855
  O          22.05336118178833     18.81945141511558     18.61098761383075
  O          23.08294407169727     16.66036068862444     17.03840089282445
  O          26.11321668020443      8.04239882549608     15.40825107345522
  O          23.60174880969355      8.27296556579657     15.83460999526343
  O          25.22781416921937     10.09795666239073     16.44129577893135
  O          26.08051876560162     12.31229286214424     14.05877574847595
  O          24.34187093190375     16.09376193053088     14.43132134613001
  O          23.77579254888106     13.70754777795657     12.91177096823726
  O          13.81048729480232      9.67501241886803      8.95493228358202
  O          15.58437599592906     11.27118322476763      8.03296179771990
  O          13.99234713464186     11.98495944072732      9.83768670762223
  O          15.05511655304421     11.53017364320080     13.00040128461867
  O          18.58289251582131     13.78929086722770     13.22283901232468
  O          17.92769839279096     11.02843886741264     12.87658271122937
  H          11.88594086075680     29.49324123126455     21.31487044322655
  H          11.17759133706822     27.86646340134167     21.41272614766503
  H          10.17125317150049     29.30155466622960     21.72248786419390
  H          11.46744814350080     28.55024219177241     19.02522257490765
  H           9.57347892562369     26.83955068557315     17.50895232550555
  H          11.30611194050732     31.02060435342856     19.56910647797587
  H           9.55347421378093     30.85205533609050     19.69687728035578
  H           9.42155544784165     30.17687265322575     17.29521814696619
  H          10.18871775123105     31.76072054178222     17.49540978190040
  H          12.51302773204160     31.77406152498033     17.71132033083985
  H          12.74916059754831     31.40512168421001     15.98731742876304
  H          14.71134548242306     30.69594430803224     17.15502582279198
  H          12.96368480638953     28.21583940960629     16.72758845826499
  H          13.91852578878171     29.03832752425118     15.45915920031513
  H          14.45257752543599     28.98315002830527     21.31977468505309
  H          22.33722514963448     21.65367766242296     14.40603419178701
  H          23.04599037067201     21.57716327253532     16.02836829956262
  H          24.08553377211691     21.86001624733786     14.61175722114826
  H          21.92408915389069     23.78092276552166     15.68948270810381
  H          22.97927548031808     25.57327292382351     17.56492186627097
  H          22.26345590571691     23.73174738961867     13.16526372149192
  H          23.94091984434518     24.19345577840858     13.40826848472263
  H          23.31007893965278     26.35672454112629     14.37274508483021
  H          22.50398894948457     26.13890551683210     12.80628181150419
  H          20.22083617012580     24.62892325168579     13.42503472419803
  H          20.02831870919839     26.32979273789860     12.92174558653722
  H          18.05191721190586     25.63622279522921     14.11325357373772
  H          19.77772360047469     27.23766415924810     16.07498383340832
  H          18.81757604469222     27.93524512946018     14.73582300327433
  H          19.95062466991210     16.09221599443984     17.37165834636393
  H          19.08457814485915     16.64356902135519     15.91647461762974
  H          18.98979003937666     14.94206239805297     16.45437153390996
  H          17.80524277073663     17.45167998051517     17.81123073223124
  H          14.99896759504406     17.64366614021614     17.03383386669041
  H          18.86494445522215     15.67301897329895     19.37308031214717
  H          17.62465539014174     14.57611083323872     18.86565643783315
  H          15.83781629777580     16.07222037837384     19.75981316022806
  H          17.04964973846023     15.75816227007131     21.01694023511184
  H          18.99455231937158     17.42638861102245     20.79236904383910
  H          17.88237939824870     18.15069543071834     21.98125498611066
  H          19.26657210571491     19.91101845647677     21.13437233376723
  H          16.62450869668906     19.98330504049429     19.57644657289197
  H          16.88779711280152     20.60094021029279     21.23481519968617
  H          23.59083971885429     12.33561536903444     15.63136487698988
  H          21.99033911742837     12.26946196860932     14.87128910368756
  H          22.45438720863987     10.97717342725712     15.96867789209149
  H          21.92752636642674     13.90079467280087     16.76860341153871
  H          23.78741778150299     12.61348624342577     18.03632313161764
  H          22.53578111626825     11.47785818624916     18.54678196711058
  H          21.33214091943324     13.18688413799419     19.77246267774697
  H          23.04947581931734     13.20634999425384     20.28371399378063
  H          24.24728012529611     14.83709639240174     18.26093539349432
  H          24.16787226855454     15.43622147927295     19.93953332869007
  H          24.36758356146655     17.35276369807664     18.50102050528715
  H          21.41940973976595     16.94755111718628     19.25331871041599
  H          22.68725003749476     17.74832143943289     20.23019342710384
  H          23.71925618259950      9.21027958132557     11.92928623897662
  H          22.90326504713779      8.50026359941570     13.34172630325630
  H          24.40942215532731      7.78367252698474     12.72478392907421
  H          24.11002083168577     10.57592901082053     14.00253629769946
  H          24.37923205043486     10.48885838549823     16.71856834761920
  H          25.85751214260252     10.32538482496972     12.14874436591873
  H          26.66319899244461      9.10930726442832     13.13251641769422
  H          27.06320235776608     10.77793419478769     14.94067754362694
  H          27.77260920793751     11.29050951495386     13.39650176296493
  H          25.79177176501342     12.53116051383334     11.99502453854021
  H          27.09435784804458     13.52053763348735     12.70480255043299
  H          25.27205502452541     14.96757392652475     12.23292787250279
  H          25.02462104171237     14.28662247019556     15.21055181657981
  H          26.24959004534686     15.38138077430068     14.50021162010442
  H          17.78236759787670      9.09379136063500     10.62605459248172
  H          17.55637577802912      9.84726907525401      9.03256493901014
  H          16.62155061505459      8.39928944704971      9.47758190100027
  H          16.40731296241295     11.15703203739549     10.84081896741932
  H          14.44014336748026     12.80162253553915      9.56379218211356
  H          16.03997955772498      9.07410665552373     12.25900989201194
  H          14.65950328090251      8.67072632975069     11.23408909152716
  H          13.51944607819815     10.79207133699459     11.91430689534330
  H          13.93979315216638      9.79701546391456     13.31845415981765
  H          15.97601686775204     10.18961608905606     14.32401029129774
  H          15.45888724348999     11.74281213630984     15.02231519217404
  H          17.86704905277903     11.72397310733270     14.84261845690631
  H          16.63960551567739     13.41960140639348     12.60354422571689
  H          16.86178867088686     13.89861275148815     14.31995236633074
  H          20.26393000301095      9.74272493559591     11.92843441731056
