Nd P  Nd P  S  O  S  O  S  Cl S  Cl S  Cl Li
 1.0000000000000000
     9.7977000000000007    0.0000000000000000    0.0000000000000000
     0.0000000000000000    9.7977000000000007    0.0000000000000000
     0.0000000000000000    0.0000000000000000    9.7977000000000007
 Nd  P   Nd  P   S   O   S   O   S   Cl  S   Cl  S   Cl  Li 
   1   1   1   1   8   2   3   1   2   4   1   1   1   1  26
Direct
  0.5000000000000000  0.5000000000000000  0.5000000000000000
  0.5000000000000000  0.0000000000000000  0.0000000000000000
  0.0000000000000000  0.5000000000000000  0.0000000000000000
  0.0000000000000000  0.0000000000000000  0.5000000000000000
  0.6235000000000001  0.6235000000000001  0.6235000000000001
  0.6235000000000001  0.3764999999999999  0.3764999999999999
  0.3764999999999999  0.6235000000000001  0.3764999999999999
  0.3764999999999999  0.3764999999999999  0.6235000000000001
  0.6235000000000001  0.1234999999999999  0.1234999999999999
  0.6235000000000001  0.8764999999999999  0.8764999999999999
  0.3764999999999999  0.1234999999999999  0.8764999999999999
  0.3764999999999999  0.8764999999999999  0.1234999999999999
  0.1234999999999999  0.6235000000000001  0.1234999999999999
  0.1234999999999999  0.3764999999999999  0.8764999999999999
  0.8764999999999999  0.6235000000000001  0.8764999999999999
  0.8764999999999999  0.3764999999999999  0.1234999999999999
  0.1234999999999999  0.1234999999999999  0.6235000000000001
  0.1234999999999999  0.8764999999999999  0.3764999999999999
  0.8764999999999999  0.1234999999999999  0.3764999999999999
  0.8764999999999999  0.8764999999999999  0.6235000000000001
  0.2500000000000000  0.2500000000000000  0.2500000000000000
  0.2500000000000000  0.7500000000000000  0.7500000000000000
  0.7500000000000000  0.2500000000000000  0.7500000000000000
  0.7500000000000000  0.7500000000000000  0.2500000000000000
  0.0000000000000000  0.0000000000000000  0.0000000000000000
  0.0000000000000000  0.5000000000000000  0.5000000000000000
  0.5000000000000000  0.0000000000000000  0.5000000000000000
  0.5000000000000000  0.5000000000000000  0.0000000000000000
  0.1626000000000000  0.1626000000000000  0.0153000000000000
  0.0153000000000000  0.1626000000000000  0.1626000000000000
  0.1626000000000000  0.8373999999999999  0.9846999999999999
  0.8373999999999999  0.8373999999999999  0.0153000000000000
  0.8373999999999999  0.0153000000000000  0.8373999999999999
  0.8373999999999999  0.1626000000000000  0.9846999999999999
  0.9846999999999999  0.8373999999999999  0.1626000000000000
  0.1626000000000000  0.9846999999999999  0.8373999999999999
  0.0153000000000000  0.6626000000000000  0.6626000000000000
  0.8373999999999999  0.4847000000000000  0.6626000000000000
  0.8373999999999999  0.5153000000000000  0.3374000000000000
  0.9846999999999999  0.3374000000000000  0.6626000000000000
  0.1626000000000000  0.4847000000000000  0.3374000000000000
  0.6626000000000000  0.1626000000000000  0.5153000000000000
  0.5153000000000000  0.1626000000000000  0.6626000000000000
  0.6626000000000000  0.8373999999999999  0.4847000000000000
  0.3374000000000000  0.8373999999999999  0.5153000000000000
  0.3374000000000000  0.0153000000000000  0.3374000000000000
  0.3374000000000000  0.1626000000000000  0.4847000000000000
  0.4847000000000000  0.8373999999999999  0.6626000000000000
  0.6626000000000000  0.9846999999999999  0.3374000000000000
  0.5153000000000000  0.6626000000000000  0.1626000000000000
  0.3374000000000000  0.4847000000000000  0.1626000000000000
  0.3374000000000000  0.5153000000000000  0.8373999999999999
  0.4847000000000000  0.3374000000000000  0.1626000000000000
  0.6626000000000000  0.4847000000000000  0.8373999999999999
