P  O  S  Cl Nd S  Cl S  Nd S  Cl S  P  S  Cl P  S  O  Cl Li
 1.0000000000000000
     6.9280201100314374    0.0000000000000000    0.0000000000000000
     3.4640100550157196    5.9998414132166866    0.0000000000000000
    17.3200502750785965    9.9997356886944786   28.2835236621959787
 P   O   S   Cl  Nd  S   Cl  S   Nd  S   Cl  S   P   S   Cl  P   S   O   Cl  Li 
   1   1   3   2   1   4   1   1   1   4   1   1   1   4   2   1   2   2   2  31
Direct
  0.4999999999999999  0.5000000000000000  0.1000000000000000
  0.6235000000000001  0.6234999999999997  0.1247000000000000
  0.1294999999999998  0.6234999999999997  0.1247000000000000
  0.6234999999999999  0.1294999999999996  0.1247000000000000
  0.6235000000000001  0.6235000000000001  0.0259000000000000
  0.2500000000000000  0.2500000000000000  0.0500000000000000
  0.0000000000000000  0.0000000000000000  0.0000000000000000
  0.4999999999999998  0.4999999999999998  0.3000000000000000
  0.6234999999999999  0.6235000000000001  0.3247000000000000
  0.1294999999999996  0.6235000000000001  0.3247000000000000
  0.6235000000000001  0.1294999999999996  0.3247000000000000
  0.6235000000000002  0.6234999999999999  0.2259000000000000
  0.2499999999999998  0.2499999999999998  0.2500000000000001
  0.0000000000000000  0.0000000000000000  0.2000000000000000
  0.4999999999999997  0.4999999999999996  0.5000000000000001
  0.6235000000000001  0.6234999999999997  0.5247000000000001
  0.1294999999999996  0.6234999999999997  0.5247000000000001
  0.6234999999999999  0.1294999999999996  0.5247000000000001
  0.6235000000000001  0.6235000000000002  0.4258999999999999
  0.2499999999999997  0.2499999999999998  0.4500000000000000
  0.0000000000000000  0.0000000000000000  0.4000000000000000
  0.4999999999999997  0.4999999999999996  0.7000000000000001
  0.6234999999999999  0.6234999999999998  0.7247000000000003
  0.1294999999999983  0.6234999999999987  0.7247000000000003
  0.6234999999999985  0.1294999999999983  0.7247000000000003
  0.6234999999999999  0.6234999999999998  0.6259000000000001
  0.2499999999999997  0.2499999999999998  0.6500000000000001
  0.0000000000000000  0.0000000000000000  0.6000000000000001
  0.4999999999999994  0.4999999999999996  0.9000000000000000
  0.6234999999999992  0.6234999999999994  0.9247000000000002
  0.1294999999999993  0.6234999999999994  0.9247000000000002
  0.6234999999999989  0.1294999999999993  0.9247000000000002
  0.6234999999999995  0.6234999999999997  0.8259000000000003
  0.2499999999999998  0.2499999999999997  0.8500000000000002
  0.0000000000000000  0.0000000000000000  0.8000000000000000
  0.0153000000000000  0.3099000000000000  0.0030600000000000
  0.0153000000000000  0.6595000000000001  0.0619800000000000
  0.3099000000000000  0.0153000000000000  0.1319000000000000
  0.0153000000000000  0.0153000000000000  0.1319000000000000
  0.6595000000000000  0.0153000000000000  0.0030600000000000
  0.3099000000000000  0.6595000000000000  0.0030600000000000
  0.3099000000000001  0.0153000000000001  0.2030600000000000
  0.0153000000000000  0.3099000000000000  0.2030600000000000
  0.6594999999999996  0.3098999999999995  0.2030600000000000
  0.0153000000000003  0.6595000000000001  0.2619800000000000
  0.0152999999999998  0.0152999999999999  0.3319000000000000
  0.0152999999999999  0.3099000000000002  0.3319000000000000
  0.6594999999999996  0.0152999999999999  0.2619800000000000
  0.0152999999999996  0.0152999999999995  0.4619800000000001
  0.3098999999999997  0.0152999999999998  0.4030600000000000
  0.6594999999999999  0.3098999999999998  0.4030600000000000
  0.0152999999999996  0.0152999999999995  0.5319000000000000
  0.0152999999999998  0.6594999999999999  0.4030600000000001
  0.3098999999999997  0.6594999999999998  0.4030600000000000
  0.0152999999999995  0.3098999999999995  0.5319000000000000
  0.6594999999999996  0.0152999999999995  0.4619800000000001
  0.0152999999999995  0.3098999999999995  0.6030600000000002
  0.0152999999999995  0.6594999999999996  0.6619800000000001
  0.3098999999999990  0.0152999999999988  0.7319000000000002
  0.0153000000000003  0.0153000000000003  0.7319000000000000
  0.6594999999999998  0.0153000000000003  0.6030600000000000
  0.3099000000000002  0.6594999999999998  0.6030600000000000
  0.0153000000000002  0.3099000000000006  0.8030600000000000
  0.6594999999999994  0.3098999999999997  0.8030600000000001
  0.0152999999999997  0.6594999999999993  0.8619800000000001
  0.0152999999999996  0.0152999999999995  0.9319000000000001
