54
Lattice="9.7977 0.0 0.0 0.0 9.7977 0.0 0.0 0.0 9.7977" Properties=species:S:1:pos:R:3:spacegroup_kinds:I:1 spacegroup="P 1" unit_cell=conventional occupancy="_JSON {\"0\": {\"Nd\": 1.0}, \"1\": {\"P\": 1.0}, \"2\": {\"Nd\": 1.0}, \"3\": {\"P\": 1.0}, \"4\": {\"S\": 1.0}, \"5\": {\"S\": 1.0}, \"6\": {\"S\": 1.0}, \"7\": {\"S\": 1.0}, \"8\": {\"S\": 1.0}, \"9\": {\"S\": 1.0}, \"10\": {\"S\": 1.0}, \"11\": {\"S\": 1.0}, \"12\": {\"O\": 1.0}, \"13\": {\"O\": 1.0}, \"14\": {\"S\": 1.0}, \"15\": {\"S\": 1.0}, \"16\": {\"S\": 1.0}, \"17\": {\"O\": 1.0}, \"18\": {\"S\": 1.0}, \"19\": {\"S\": 1.0}, \"20\": {\"Cl\": 1.0}, \"21\": {\"Cl\": 1.0}, \"22\": {\"Cl\": 1.0}, \"23\": {\"Cl\": 1.0}, \"24\": {\"S\": 1.0}, \"25\": {\"Cl\": 1.0}, \"26\": {\"S\": 1.0}, \"27\": {\"Cl\": 1.0}, \"28\": {\"Li\": 1.0}, \"29\": {\"Li\": 1.0}, \"30\": {\"Li\": 1.0}, \"31\": {\"Li\": 1.0}, \"32\": {\"Li\": 1.0}, \"33\": {\"Li\": 1.0}, \"34\": {\"Li\": 1.0}, \"35\": {\"Li\": 1.0}, \"36\": {\"Li\": 1.0}, \"37\": {\"Li\": 1.0}, \"38\": {\"Li\": 1.0}, \"39\": {\"Li\": 1.0}, \"40\": {\"Li\": 1.0}, \"41\": {\"Li\": 1.0}, \"42\": {\"Li\": 1.0}, \"43\": {\"Li\": 1.0}, \"44\": {\"Li\": 1.0}, \"45\": {\"Li\": 1.0}, \"46\": {\"Li\": 1.0}, \"47\": {\"Li\": 1.0}, \"48\": {\"Li\": 1.0}, \"49\": {\"Li\": 1.0}, \"50\": {\"Li\": 1.0}, \"51\": {\"Li\": 1.0}, \"52\": {\"Li\": 1.0}, \"53\": {\"Li\": 1.0}}" pbc="T T T"
Nd       4.89885000       4.89885000       4.89885000        0
P        4.89885000       0.00000000       0.00000000        1
Nd       0.00000000       4.89885000       0.00000000        2
P        0.00000000       0.00000000       4.89885000        3
S        6.10886595       6.10886595       6.10886595        4
S        6.10886595       3.68883405       3.68883405        5
S        3.68883405       6.10886595       3.68883405        6
S        3.68883405       3.68883405       6.10886595        7
S        6.10886595       1.21001595       1.21001595        8
S        6.10886595       8.58768405       8.58768405        9
S        3.68883405       1.21001595       8.58768405       10
S        3.68883405       8.58768405       1.21001595       11
O        1.21001595       6.10886595       1.21001595       12
O        1.21001595       3.68883405       8.58768405       13
S        8.58768405       6.10886595       8.58768405       14
S        8.58768405       3.68883405       1.21001595       15
S        1.21001595       1.21001595       6.10886595       16
O        1.21001595       8.58768405       3.68883405       17
S        8.58768405       1.21001595       3.68883405       18
S        8.58768405       8.58768405       6.10886595       19
Cl       2.44942500       2.44942500       2.44942500       20
Cl       2.44942500       7.34827500       7.34827500       21
Cl       7.34827500       2.44942500       7.34827500       22
Cl       7.34827500       7.34827500       2.44942500       23
S        0.00000000       0.00000000       0.00000000       24
Cl       0.00000000       4.89885000       4.89885000       25
S        4.89885000       0.00000000       4.89885000       26
Cl       4.89885000       4.89885000       0.00000000       27
Li       1.59310602       1.59310602       0.14990481       28
Li       0.14990481       1.59310602       1.59310602       29
Li       1.59310602       8.20459398       9.64779519       30
Li       8.20459398       8.20459398       0.14990481       31
Li       8.20459398       0.14990481       8.20459398       32
Li       8.20459398       1.59310602       9.64779519       33
Li       9.64779519       8.20459398       1.59310602       34
Li       1.59310602       9.64779519       8.20459398       35
Li       0.14990481       6.49195602       6.49195602       36
Li       8.20459398       4.74894519       6.49195602       37
Li       8.20459398       5.04875481       3.30574398       38
Li       9.64779519       3.30574398       6.49195602       39
Li       1.59310602       4.74894519       3.30574398       40
Li       6.49195602       1.59310602       5.04875481       41
Li       5.04875481       1.59310602       6.49195602       42
Li       6.49195602       8.20459398       4.74894519       43
Li       3.30574398       8.20459398       5.04875481       44
Li       3.30574398       0.14990481       3.30574398       45
Li       3.30574398       1.59310602       4.74894519       46
Li       4.74894519       8.20459398       6.49195602       47
Li       6.49195602       9.64779519       3.30574398       48
Li       5.04875481       6.49195602       1.59310602       49
Li       3.30574398       4.74894519       1.59310602       50
Li       3.30574398       5.04875481       8.20459398       51
Li       4.74894519       3.30574398       1.59310602       52
Li       6.49195602       4.74894519       8.20459398       53
