66
Lattice="6.928020110031437 0.0 0.0 3.4640100550157196 5.999841413216687 0.0 17.320050275078597 9.999735688694479 28.28352366219598" Properties=species:S:1:pos:R:3:spacegroup_kinds:I:1 spacegroup="P 1" unit_cell=conventional occupancy="_JSON {\"0\": {\"P\": 1.0}, \"1\": {\"O\": 1.0}, \"2\": {\"S\": 1.0}, \"3\": {\"S\": 1.0}, \"4\": {\"S\": 1.0}, \"5\": {\"Cl\": 1.0}, \"6\": {\"Cl\": 1.0}, \"7\": {\"Nd\": 1.0}, \"8\": {\"S\": 1.0}, \"9\": {\"S\": 1.0}, \"10\": {\"S\": 1.0}, \"11\": {\"S\": 1.0}, \"12\": {\"Cl\": 1.0}, \"13\": {\"S\": 1.0}, \"14\": {\"Nd\": 1.0}, \"15\": {\"S\": 1.0}, \"16\": {\"S\": 1.0}, \"17\": {\"S\": 1.0}, \"18\": {\"S\": 1.0}, \"19\": {\"Cl\": 1.0}, \"20\": {\"S\": 1.0}, \"21\": {\"P\": 1.0}, \"22\": {\"S\": 1.0}, \"23\": {\"S\": 1.0}, \"24\": {\"S\": 1.0}, \"25\": {\"S\": 1.0}, \"26\": {\"Cl\": 1.0}, \"27\": {\"Cl\": 1.0}, \"28\": {\"P\": 1.0}, \"29\": {\"S\": 1.0}, \"30\": {\"S\": 1.0}, \"31\": {\"O\": 1.0}, \"32\": {\"O\": 1.0}, \"33\": {\"Cl\": 1.0}, \"34\": {\"Cl\": 1.0}, \"35\": {\"Li\": 1.0}, \"36\": {\"Li\": 1.0}, \"37\": {\"Li\": 1.0}, \"38\": {\"Li\": 1.0}, \"39\": {\"Li\": 1.0}, \"40\": {\"Li\": 1.0}, \"41\": {\"Li\": 1.0}, \"42\": {\"Li\": 1.0}, \"43\": {\"Li\": 1.0}, \"44\": {\"Li\": 1.0}, \"45\": {\"Li\": 1.0}, \"46\": {\"Li\": 1.0}, \"47\": {\"Li\": 1.0}, \"48\": {\"Li\": 1.0}, \"49\": {\"Li\": 1.0}, \"50\": {\"Li\": 1.0}, \"51\": {\"Li\": 1.0}, \"52\": {\"Li\": 1.0}, \"53\": {\"Li\": 1.0}, \"54\": {\"Li\": 1.0}, \"55\": {\"Li\": 1.0}, \"56\": {\"Li\": 1.0}, \"57\": {\"Li\": 1.0}, \"58\": {\"Li\": 1.0}, \"59\": {\"Li\": 1.0}, \"60\": {\"Li\": 1.0}, \"61\": {\"Li\": 1.0}, \"62\": {\"Li\": 1.0}, \"63\": {\"Li\": 1.0}, \"64\": {\"Li\": 1.0}, \"65\": {\"Li\": 1.0}}" pbc="T T T"
P        6.92802011       3.99989428       2.82835237        0
O        8.63924108       4.98786816       3.52695540        1
S        5.21679914       4.98786816       3.52695540        2
S        6.92802011       2.02394650       3.52695540        3
S        6.92802011       3.99989428       0.73254326        4
Cl       3.46401006       1.99994714       1.41417618        5
Cl       0.00000000       0.00000000       0.00000000        6
Nd      10.39203017       5.99984141       8.48505710        7
S       12.10325113       6.98781530       9.18366013        8
S        8.68080920       6.98781530       9.18366013        9
S       10.39203017       4.02389364       9.18366013       10
S       10.39203017       5.99984141       6.38924800       11
Cl       6.92802011       3.99989428       7.07088092       12
S        3.46401006       1.99994714       5.65670473       13
Nd      13.85604022       7.99978855      14.14176183       14
S       15.56726119       8.98776244      14.84036487       15
S       12.14481925       8.98776244      14.84036487       16
S       13.85604022       6.02384078      14.84036487       17
S       13.85604022       7.99978855      12.04595273       18
Cl      10.39203017       5.99984141      12.72758565       19
S        6.92802011       3.99989428      11.31340946       20
P       17.32005028       9.99973569      19.79846656       21
S       19.03127124      10.98770957      20.49706960       22
S       15.60882931      10.98770957      20.49706960       23
S       17.32005028       8.02378792      20.49706960       24
S       17.32005028       9.99973569      17.70265746       25
Cl      13.85604022       7.99978855      18.38429038       26
Cl      10.39203017       5.99984141      16.97011420       27
P       20.78406033      11.99968283      25.45517130       28
S       22.49528130      12.98765671      26.15377433       29
S       19.07283936      12.98765671      26.15377433       30
O       20.78406033      10.02373505      26.15377433       31
O       20.78406033      11.99968283      23.35936219       32
Cl      17.32005028       9.99973569      24.04099511       33
Cl      13.85604022       7.99978855      22.62681893       34
Li       1.23249478       1.88995005       0.08654758       35
Li       3.46401006       4.57667903       1.75301280       36
Li       4.48450742       1.41076271       3.73059677       37
Li       2.44351269       1.41076271       3.73059677       38
Li       4.67502797       0.12239676       0.08654758       39
Li       4.48450742       3.98749460       0.08654758       40
Li       5.71700219       2.12234390       5.74325231       41
Li       4.69650483       3.88989718       5.74325231       42
Li       9.15953539       3.88989718       5.74325231       43
Li       6.92802011       6.57662617       7.40971753       44
Li       5.90752275       3.41070985       9.38730150       45
Li       6.92802011       5.17826313       9.38730150       46
Li       9.15953539       2.71152833       7.40971753       47
Li       8.16051489       4.71147547      13.06642226       48
Li       9.18101225       4.12229104      11.39995705       49
Li      12.62354544       5.88984432      11.39995705       50
Li       9.37153280       5.41065699      15.04400624       51
Li       9.37153280       7.98738888      11.39995705       52
Li      11.41252753       7.98738888      11.39995705       53
Li      10.39203017       7.17821027      15.04400624       54
Li      12.62354544       4.71147547      13.06642226       55
Li      11.62452494       7.88979146      17.05666178       56
Li      13.85604022      10.57652044      18.72312699       57
Li      14.87653758       7.41060412      20.70071097       58
Li      12.83554286       7.41060412      20.70071097       59
Li      15.06705814       6.12223818      17.05666178       60
Li      14.87653758       9.98733602      17.05666178       61
Li      15.08853500       9.88973860      22.71336651       62
Li      19.55156555       9.88973860      22.71336651       63
Li      17.32005028      12.57646758      24.37983173       64
Li      16.29955291       9.41055126      26.35741570       65
