n2_doped | nat=67 | cell a=32.734 b=25.223 c=23.613 A | z-span=7.613 A | vertical vacuum=16.000 A | NON-PERIODIC molecule from /home/user/Yonghoon-DEM-DFT/db/structures/sdcp_v7c_dimer_doped.xyz | cell below is a VIEWING BOX (pad 8.00 A per side), NOT a calculation cell - the source calculation has no lattice | source comment: Coordinates from ORCA-job dimer_doped E -3350.681182242003
1.0
     32.733868749803     0.000000000000     0.000000000000
      0.000000000000    25.222965645130     0.000000000000
      0.000000000000     0.000000000000    23.613414068630
  C  S  O  H
  22  4  12  29
Cartesian
     10.069812641877    14.191211244630    12.091480093028
     10.452546888231    14.327111670172    10.621280653654
     10.335576637717    15.776377630795    10.140422378213
     11.011159127108    16.082167961202     8.808261268040
     13.273549292991    16.546641543960     9.497737451344
     14.242237437890    15.711327040520    10.313314270858
     14.807831109308    14.548017255364     9.517393763327
     15.232080723471    13.484425930210    11.530835876436
     15.686405990342    12.443465787063    12.332722448208
     13.698478775965    13.651299599823    13.279364962958
     14.115106460140    14.169012492913    12.080709280020
     21.896492767020     8.676750677017    13.466254078494
     22.388297468745    10.043353149479    12.994461016235
     23.226732779723     9.939854960663    11.720954852566
     23.590872537609    11.263490533347    11.058669692824
     21.699741614060    11.669400626699     9.631717556177
     20.219021263449    11.651518399953     9.950584144610
     19.760311794162    12.917735779174    10.652995087294
     17.941652463662    11.702447023826    11.425393744533
     16.736876989449    11.516109222778    12.091881141391
     18.202850028838     9.474221113494    12.063542057406
     18.756274567424    10.538554888237    11.403423525215
      9.393305958761    13.202003449512     9.629795278184
     14.690925955292    12.323042792216    13.776785605017
     23.348703971076    10.789274815763    14.373066339303
     16.644471873429     9.871461999411    12.704684408774
      8.000000000000    13.735313308784     9.731017516015
      9.531670291963    11.847511351375    10.244677939906
      9.908672447460    13.229749433421     8.226143769406
     12.393784632097    15.695768277420     8.792210763151
     15.738126220894    13.780361837530    10.316473399255
     13.512730006786    15.215215343323    11.463271522857
     24.733868749803    10.336877238360    14.291568594794
     22.572704029141    10.693239528007    15.613414068630
     23.366544693343    12.396045670712    13.953939909505
     22.438329149205    12.063808352173    10.776666709678
     18.340940638885    12.883181793107    10.903317491792
     19.977002688369    10.504651845180    10.799812976012
     10.721109492698    14.836280361265    12.691986921539
     10.176157708119    13.159072464875    12.434466617968
      9.033437112926    14.506844448281    12.252223297561
     11.471131790274    13.958774744616    10.452085434366
     10.771612446337    16.408649776418    10.926713739218
      9.276243829106    16.057767720460    10.069794378333
     10.550682718692    15.510298152330     8.000000000000
     10.916776013844    17.155397301284     8.578245789389
     12.743411108930    17.222965645130    10.183879849618
     13.850664959000    17.168319904802     8.791716662931
     15.065509854560    16.346989092332    10.678128097007
     13.996220619741    13.896645603212     9.173796199293
     15.377959468340    14.910146211128     8.658786914521
     12.878042308852    13.995176194732    13.893267650954
     21.286212976117     8.240165362771    12.669309143472
     21.289311453360     8.758095354067    14.370195431403
     22.734730381505     8.000000000000    13.662386237574
     21.544474648606    10.726543228377    12.844714000530
     22.755686553397    12.850962862248    14.556287318912
     22.639237878060     9.331647664514    11.020372253445
     24.147785328519     9.382463152893    11.931990873235
     24.220006326561    11.874068429942    11.710961073482
     24.157013981918    11.068801035803    10.134751158412
     21.988105576821    10.669576327156     9.277184536070
     21.875489408303    12.381089794507     8.808428663685
     19.646381749915    11.520609091902     9.017866610904
     20.299970875871    13.035280652833    11.600629068709
     19.932123618497    13.793615123221    10.022449340128
     18.613251546399     8.480404229948    12.173197908164
