67
n2_doped | nat=67 | cell a=32.734 b=25.223 c=23.613 A | z-span=7.613 A | vertical vacuum=16.000 A | NON-PERIODIC molecule from /home/user/Yonghoon-DEM-DFT/db/structures/sdcp_v7c_dimer_doped.xyz | cell below is a VIEWING BOX (pad 8.00 A per side), NOT a calculation cell - the source calculation has no lattice | source comment: Coordinates from ORCA-job dimer_doped E -3350.681182242003
C        10.06981264      14.19121124      12.09148009
C        10.45254689      14.32711167      10.62128065
C        10.33557664      15.77637763      10.14042238
C        11.01115913      16.08216796       8.80826127
C        13.27354929      16.54664154       9.49773745
C        14.24223744      15.71132704      10.31331427
C        14.80783111      14.54801726       9.51739376
C        15.23208072      13.48442593      11.53083588
C        15.68640599      12.44346579      12.33272245
C        13.69847878      13.65129960      13.27936496
C        14.11510646      14.16901249      12.08070928
C        21.89649277       8.67675068      13.46625408
C        22.38829747      10.04335315      12.99446102
C        23.22673278       9.93985496      11.72095485
C        23.59087254      11.26349053      11.05866969
C        21.69974161      11.66940063       9.63171756
C        20.21902126      11.65151840       9.95058414
C        19.76031179      12.91773578      10.65299509
C        17.94165246      11.70244702      11.42539374
C        16.73687699      11.51610922      12.09188114
C        18.20285003       9.47422111      12.06354206
C        18.75627457      10.53855489      11.40342353
S         9.39330596      13.20200345       9.62979528
S        14.69092596      12.32304279      13.77678561
S        23.34870397      10.78927482      14.37306634
S        16.64447187       9.87146200      12.70468441
O         8.00000000      13.73531331       9.73101752
O         9.53167029      11.84751135      10.24467794
O         9.90867245      13.22974943       8.22614377
O        12.39378463      15.69576828       8.79221076
O        15.73812622      13.78036184      10.31647340
O        13.51273001      15.21521534      11.46327152
O        24.73386875      10.33687724      14.29156859
O        22.57270403      10.69323953      15.61341407
O        23.36654469      12.39604567      13.95393991
O        22.43832915      12.06380835      10.77666671
O        18.34094064      12.88318179      10.90331749
O        19.97700269      10.50465185      10.79981298
H        10.72110949      14.83628036      12.69198692
H        10.17615771      13.15907246      12.43446662
H         9.03343711      14.50684445      12.25222330
H        11.47113179      13.95877474      10.45208543
H        10.77161245      16.40864978      10.92671374
H         9.27624383      16.05776772      10.06979438
H        10.55068272      15.51029815       8.00000000
H        10.91677601      17.15539730       8.57824579
H        12.74341111      17.22296565      10.18387985
H        13.85066496      17.16831990       8.79171666
H        15.06550985      16.34698909      10.67812810
H        13.99622062      13.89664560       9.17379620
H        15.37795947      14.91014621       8.65878691
H        12.87804231      13.99517619      13.89326765
H        21.28621298       8.24016536      12.66930914
H        21.28931145       8.75809535      14.37019543
H        22.73473038       8.00000000      13.66238624
H        21.54447465      10.72654323      12.84471400
H        22.75568655      12.85096286      14.55628732
H        22.63923788       9.33164766      11.02037225
H        24.14778533       9.38246315      11.93199087
H        24.22000633      11.87406843      11.71096107
H        24.15701398      11.06880104      10.13475116
H        21.98810558      10.66957633       9.27718454
H        21.87548941      12.38108979       8.80842866
H        19.64638175      11.52060909       9.01786661
H        20.29997088      13.03528065      11.60062907
H        19.93212362      13.79361512      10.02244934
H        18.61325155       8.48040423      12.17319791
