100
n3end_doped | nat=100 | cell a=32.769 b=32.659 c=24.842 A | z-span=8.842 A | vertical vacuum=16.000 A | NON-PERIODIC molecule from /home/user/Yonghoon-DEM-DFT/db/structures/sdcp_v7c_trimer_doped_end.xyz | cell below is a VIEWING BOX (pad 8.00 A per side), NOT a calculation cell - the source calculation has no lattice | source comment: Coordinates from ORCA-job trimer_doped_end E -5025.772950332016
C        10.32725193      21.95299715      12.44259282
C        10.51626303      21.85376203      10.93258424
C        10.28348350      23.20505045      10.25256088
C        10.72530189      23.29843084       8.79700094
C        13.05888223      23.86967650       9.02048867
C        14.15471781      23.17614995       9.80957391
C        14.60003944      21.88262654       9.15039272
C        15.32012488      21.15383191      11.22554876
C        15.87537093      20.23565048      12.10888231
C        14.04892564      21.63176740      13.12118082
C        14.29627686      21.94726998      11.81139630
C        21.99115107      17.47865800      13.79658220
C        22.36448233      18.53434370      12.75719454
C        23.12077815      17.93175443      11.57371719
C        23.49581374      18.89367628      10.45155299
C        21.58083529      18.94144825       8.97778967
C        20.11600110      18.98083578       9.37147791
C        19.68829690      20.34735607       9.88138947
C        17.97469883      19.29291391      11.03308633
C        16.86990260      19.25062647      11.87629840
C        18.31856113      17.17347590      11.99717150
C        18.77798632      18.14054968      11.11175349
C        18.87980236       9.91692197      11.56302302
C        17.66620022      10.12474664      12.46617920
C        17.85952513       9.48271424      13.83905846
C        16.80761690       9.83446472      14.88472523
C        17.68682835      11.85358533      15.84621712
C        18.17221989      13.12283289      15.17526999
C        17.02638356      14.02192730      14.74382251
C        18.47916399      14.96884152      13.20292931
C        18.85734496      15.88191007      12.22927902
C        20.09143139      13.68766879      12.12548510
C        19.18199818      13.73881582      13.14674486
S         9.38566300      20.56058154      10.27687223
S        15.08924090      20.36627532      13.67757796
S        23.36825269      19.80965024      13.62321545
S        16.83989115      17.73553093      12.76754081
S        16.20594962       9.42194097      11.59724550
S        20.10414674      15.16168638      11.21163944
O         8.00000000      21.09694753      10.44149584
O         9.63677237      19.33970173      11.10011936
O         9.75038733      20.35247662       8.84127833
O        12.09798628      22.92022594       8.61003573
O        15.64695800      21.24486286       9.92043202
O        13.61974562      22.90319550      11.12864311
O        24.76883590      19.39728633      13.61168149
O        22.68981423      20.20879721      14.86064922
O        23.25707298      21.10446074      12.59036656
O        22.37154170      19.61648932       9.94175936
O        18.29927343      20.35607119      10.26122844
O        19.93131679      17.98761515      10.41209765
O        16.10424858       8.00000000      11.91037573
O        16.17908826       9.91484439      10.21672489
O        14.94773781      10.15886625      12.38812072
O        16.67284024      11.24880220      15.06131627
O        17.52872565      15.23065570      14.13204183
O        18.95641489      12.72283042      14.02435692
H        11.01595501      22.70559247      12.84409876
H        10.52187171      20.99391408      12.92881181
H         9.30475502      22.26338433      12.68330884
H        11.51871974      21.48153818      10.69240904
H        10.81740000      23.95962128      10.84787920
H         9.21705494      23.46255258      10.30888836
H        10.15737055      22.60312030       8.17542605
H        10.56276444      24.32157368       8.42158705
H        12.62822821      24.65903904       9.65376953
H        13.51316998      24.35608026       8.13992559
H        15.01778344      23.85215641       9.92359489
H        13.75003700      21.19815552       9.05121794
H        15.03054598      22.08077188       8.16615597
H        13.32537275      22.08885210      13.78112813
H        21.37194288      16.71774936      13.31180410
H        21.42823987      17.91409040      14.62475391
H        22.88501912      16.98775362      14.19570810
H        21.47279143      19.07076689      12.41157483
H        22.69976601      21.76672582      13.03066572
H        22.47324839      17.13827929      11.17764717
H        24.03714131      17.45069070      11.93839051
H        24.19992053      19.65317372      10.80244998
H        23.98882052      18.33370796       9.64238309
H        21.87760645      17.88891207       8.86070136
H        21.69453308      19.43615782       8.00000000
H        19.49260964      18.69039382       8.51132437
H        20.30740720      20.63472480      10.73965116
H        19.79086566      21.09741456       9.09310137
H        19.74871811      10.37057444      12.05025114
H        18.73870588      10.38476297      10.58646472
H        19.08792477       8.85158571      11.41824587
H        17.44006508      11.19205182      12.57026615
H        14.56898785      10.81156535      11.77655315
H        18.84685360       9.80927709      14.19211767
H        17.90413197       8.39179198      13.73236105
H        15.81737997       9.48017033      14.58803234
H        17.06287953       9.35240703      15.84092291
H        18.55081290      11.18911241      15.98966041
H        17.28985873      12.10938367      16.84234331
H        18.83000804      13.67238508      15.86826001
H        16.37783906      13.49485134      14.03444745
H        16.44126648      14.34349642      15.60862681
H        20.76322909      12.87813697      11.87807268
