n3end_doped | nat=100 | cell a=32.769 b=32.659 c=24.842 A | z-span=8.842 A | vertical vacuum=16.000 A | NON-PERIODIC molecule from /home/user/Yonghoon-DEM-DFT/db/structures/sdcp_v7c_trimer_doped_end.xyz | cell below is a VIEWING BOX (pad 8.00 A per side), NOT a calculation cell - the source calculation has no lattice | source comment: Coordinates from ORCA-job trimer_doped_end E -5025.772950332016
1.0
     32.768835903656     0.000000000000     0.000000000000
      0.000000000000    32.659039036717     0.000000000000
      0.000000000000     0.000000000000    24.842343311799
  C  S  O  H
  33  6  18  43
Cartesian
     10.327251930297    21.952997153360    12.442592820121
     10.516263025619    21.853762030161    10.932584238257
     10.283483499638    23.205050451048    10.252560877283
     10.725301891725    23.298430837337     8.797000938133
     13.058882234093    23.869676499937     9.020488673488
     14.154717810807    23.176149951160     9.809573908366
     14.600039441338    21.882626542152     9.150392720580
     15.320124877167    21.153831912401    11.225548755121
     15.875370927971    20.235650478654    12.108882310594
     14.048925638019    21.631767402019    13.121180818458
     14.296276859738    21.947269978304    11.811396303839
     21.991151070194    17.478657996185    13.796582198498
     22.364482331940    18.534343702740    12.757194543362
     23.120778152663    17.931754429798    11.573717192834
     23.495813736159    18.893676276788    10.451552987829
     21.580835289618    18.941448245702     8.977789665712
     20.116001102608    18.980835776722     9.371477910426
     19.688296902901    20.347356073195     9.881389465621
     17.974698832852    19.292913908404    11.033086327792
     16.869902602747    19.250626465441    11.876298395967
     18.318561132404    17.173475898309    11.997171502777
     18.777986318031    18.140549677530    11.111753485514
     18.879802357315     9.916921965239    11.563023024733
     17.666200222727    10.124746642458    12.466179199306
     17.859525133309     9.482714243061    13.839058455933
     16.807616895428     9.834464724771    14.884725234046
     17.686828353927    11.853585330723    15.846217119742
     18.172219887365    13.122832893896    15.175269986493
     17.026383564681    14.021927299844    14.743822514335
     18.479163994450    14.968841522033    13.202929306390
     18.857344956225    15.881910074441    12.229279023195
     20.091431387338    13.687668792333    12.125485095791
     19.181998179420    13.738815815555    13.146744859123
      9.385662995677    20.560581541426    10.276872233188
     15.089240902353    20.366275317874    13.677577958006
     23.368252685280    19.809650240301    13.623215448534
     16.839891152208    17.735530934013    12.767540814437
     16.205949620309     9.421940971326    11.597245502058
     20.104146736327    15.161686379066    11.211639444279
      8.000000000000    21.096947526224    10.441495842529
      9.636772368199    19.339701725758    11.100119364381
      9.750387326382    20.352476619894     8.841278326834
     12.097986279709    22.920225938610     8.610035726212
     15.646958000870    21.244862858867     9.920432016726
     13.619745621218    22.903195498153    11.128643105070
     24.768835903656    19.397286331557    13.611681493029
     22.689814227840    20.208797207793    14.860649220340
     23.257072977467    21.104460739028    12.590366564991
     22.371541703949    19.616489320454     9.941759357137
     18.299273428360    20.356071189689    10.261228435601
     19.931316786905    17.987615151400    10.412097651004
     16.104248579937     8.000000000000    11.910375725436
     16.179088257828     9.914844394670    10.216724893890
     14.947737805726    10.158866245336    12.388120716931
     16.672840244115    11.248802195032    15.061316270264
     17.528725652525    15.230655699706    14.132041831931
     18.956414892696    12.722830422706    14.024356922812
     11.015955005835    22.705592467787    12.844098764928
     10.521871713344    20.993914080816    12.928811807882
      9.304755019202    22.263384332580    12.683308836532
     11.518719735381    21.481538183592    10.692409040309
     10.817400003809    23.959621275471    10.847879199186
      9.217054935743    23.462552582039    10.308888364901
     10.157370550520    22.603120296681     8.175426049895
     10.562764444718    24.321573682060     8.421587050354
     12.628228209985    24.659039036717     9.653769525365
     13.513169977780    24.356080260934     8.139925590559
     15.017783441241    23.852156414688     9.923594893894
     13.750036995593    21.198155520040     9.051217941047
     15.030545981431    22.080771881276     8.166155966727
     13.325372747721    22.088852102890    13.781128131793
     21.371942876624    16.717749356430    13.311804097765
     21.428239868626    17.914090398758    14.624753914750
     22.885019124042    16.987753621315    14.195708102348
     21.472791428434    19.070766885353    12.411574828965
     22.699766012670    21.766725815312    13.030665721897
     22.473248386568    17.138279291658    11.177647165961
     24.037141310526    17.450690695616    11.938390509542
     24.199920528044    19.653173716391    10.802449975393
     23.988820523774    18.333707964796     9.642383091338
     21.877606447731    17.888912074974     8.860701359992
     21.694533075660    19.436157815018     8.000000000000
     19.492609643466    18.690393823687     8.511324368899
     20.307407195568    20.634724796046    10.739651155384
     19.790865658334    21.097414563554     9.093101372391
     19.748718113803    10.370574435297    12.050251140287
     18.738705880390    10.384762974598    10.586464720784
     19.087924768573     8.851585713716    11.418245872838
     17.440065079984    11.192051822612    12.570266152536
     14.568987852199    10.811565346206    11.776553153057
     18.846853602925     9.809277088013    14.192117671992
     17.904131966469     8.391791979700    13.732361051051
     15.817379971761     9.480170325837    14.588032335080
     17.062879532536     9.352407032435    15.840922905880
     18.550812897729    11.189112408771    15.989660405502
     17.289858728045    12.109383667469    16.842343311799
     18.830008043485    13.672385082818    15.868260013396
     16.377839062666    13.494851343628    14.034447450631
     16.441266484620    14.343496416020    15.608626810547
     20.763229090889    12.878136970767    11.878072684011
