n3mid_doped | nat=100 | cell a=32.077 b=33.272 c=24.827 A | z-span=8.827 A | vertical vacuum=16.000 A | NON-PERIODIC molecule from /home/user/Yonghoon-DEM-DFT/db/structures/sdcp_v7c_trimer_doped_mid.xyz | cell below is a VIEWING BOX (pad 8.00 A per side), NOT a calculation cell - the source calculation has no lattice | source comment: Coordinates from ORCA-job trimer_doped_mid E -5025.775556463325
1.0
     32.076697468343     0.000000000000     0.000000000000
      0.000000000000    33.271790795014     0.000000000000
      0.000000000000     0.000000000000    24.827310421659
  C  S  O  H
  33  6  18  43
Cartesian
     10.196400782613    22.349407947459    12.294234793107
     10.455464230549    22.483204567120    10.795620488449
     10.437622445149    23.941730086354    10.340743334420
     10.863857548165    24.190280384442     8.898496036392
     13.250989031311    24.414222005389     9.085243808367
     14.246115379669    23.520485804958     9.797217997392
     14.582188281257    22.271968436840     9.000458594584
     15.262871410257    21.311158292509    11.000115936181
     15.806906235580    20.319890705248    11.808854624897
     14.088738764484    21.738483219494    12.969676120838
     14.303745205533    22.115424381268    11.671118947577
     21.674019038370    17.111069352521    13.552435925765
     21.743956533665    18.308109410935    12.607051020907
     22.914293206037    18.159187607736    11.629328648772
     23.279603247967    19.353810424574    10.752760692916
     21.646492121647    19.233865040389     8.943792143427
     20.125845813225    19.244839690369     9.058890925609
     19.619026054317    20.529488524088     9.696368687201
     17.840777387442    19.395289098610    10.605413408028
     16.769911092019    19.328944519590    11.493756536406
     18.226279725492    17.259775249356    11.516201872750
     18.639761176587    18.240005767686    10.616403600173
     18.937657894000    10.051534443733    11.516109783113
     17.907790650689    10.258841323572    12.624060592803
     18.412020251479     9.752152688279    13.974280851090
     17.547990690246    10.106044090970    15.179223244824
     18.391374173695    12.266765965946    15.813929628911
     18.669270948595    13.472133789736    14.939280558086
     17.403599564600    14.240750012605    14.599592435589
     18.581747955517    15.125869483125    12.799986131472
     18.826807440479    16.001404063656    11.747917531892
     20.191148147531    13.891894886892    11.668838816302
     19.365250899273    13.948499582307    12.760028979485
      9.175902798745    21.493324932952     9.921078148557
     15.086810343606    20.397124100002    13.411626884806
     21.819724235124    19.855118261368    13.607208568926
     16.772902329535    17.794374598649    12.352519236613
     16.367078898955     9.394858335121    12.114674060705
     20.042871457611    15.305328835469    10.679319830013
      8.000000000000    22.326362726684     9.689341869712
      9.076328209721    20.168169166926    10.541141383533
      9.871491182543    21.265483504443     8.430848463187
     12.155695756814    23.646642135869     8.610837121156
     15.557702653905    21.465859177154     9.691138669690
     13.654239103024    23.148080515519    11.064096010812
     23.226674230249    19.955753813645    14.098254358869
     20.817043872658    19.673173600948    14.698270252695
     21.448114341909    20.972268356803    12.681854702132
     22.188019142229    19.936280697896    10.037902644127
     18.179498901952    20.481031512279     9.882949686951
     19.758283401839    18.095649915695     9.881101580048
     16.436013606264     8.000000000000    12.538886428561
     16.032193708709     9.769939063278    10.737000793489
     15.228736386425    10.112182655203    13.087499838404
     17.311316129532    11.513153068110    15.284887949925
     17.703782213908    15.398840915187    13.790663842272
     19.294670978549    12.988900805054    13.725039602347
     10.975648371322    22.904545730059    12.825747599736
     10.225434541684    21.306378755778    12.615742769669
      9.226583595412    22.778109862846    12.567687763703
     11.405628054860    22.010431807516    10.522452784414
     10.173805967873    20.343309809131     8.398194875052
     11.114742824443    24.478449421825    11.018501281869
      9.434914158816    24.360942026914    10.490657521579
     10.179341689407    23.710324913433     8.194366080523
     10.849441028685    25.271790795014     8.693067173793
     12.931547739318    25.199446469904     9.785181760281
     13.757586522891    24.904182390660     8.237971555280
     15.169072001105    24.088987660507     9.997292455693
     13.672761270811    21.683510981166     8.827913407963
     15.035809771833    22.534865499335     8.041612223504
     13.432950231828    22.205399828102    13.690803711918
     21.671231094685    16.178830859289    12.974718161199
     20.772005109365    17.153130120462    14.167487781022
     22.544327088982    17.099789764083    14.217789024652
     20.806194255956    18.409865560890    12.052028429040
     22.687733995053    17.284077974800    11.001803585444
     23.819056927995    17.908324105826    12.200054875135
     23.659516369198    20.169384692453    11.373668612191
     24.076697468343    19.055531212626    10.051124001081
     21.983087143768    18.187577708836     8.891073803784
     21.932282690026    19.729455675435     8.000000000000
     19.662080166267    19.091889120066     8.073438647400
     20.104181526540    20.698046768185    10.666451370051
     19.810173680544    21.377833649093     9.035451713478
     19.843704692984    10.602885847051    11.786298333915
     18.575270571690    10.421657650094    10.554877464092
     19.200222756948     8.993444911373    11.412553689026
     17.622522488395    11.314755226449    12.692582298536
     14.708988073256    10.707047739119    12.522831604083
     19.413124128990    10.184069732492    14.105525483383
     18.536780549378     8.662894384722    13.934187702787
     16.558960554461     9.646438410274    15.108028518344
     18.026205469393     9.729114702758    16.096390569758
     19.313264465576    11.672231326897    15.884800612493
     18.138575428303    12.617770377687    16.827310421659
     19.380111863079    14.140299639962    15.452168214745
     16.702702059639    13.591675031179    14.061543575711
     16.928930815535    14.624244345053    15.506008895174
     20.902219197301    13.116259017186    11.421286988249
