100
n3mid_doped | nat=100 | cell a=32.077 b=33.272 c=24.827 A | z-span=8.827 A | vertical vacuum=16.000 A | NON-PERIODIC molecule from /home/user/Yonghoon-DEM-DFT/db/structures/sdcp_v7c_trimer_doped_mid.xyz | cell below is a VIEWING BOX (pad 8.00 A per side), NOT a calculation cell - the source calculation has no lattice | source comment: Coordinates from ORCA-job trimer_doped_mid E -5025.775556463325
C        10.19640078      22.34940795      12.29423479
C        10.45546423      22.48320457      10.79562049
C        10.43762245      23.94173009      10.34074333
C        10.86385755      24.19028038       8.89849604
C        13.25098903      24.41422201       9.08524381
C        14.24611538      23.52048580       9.79721800
C        14.58218828      22.27196844       9.00045859
C        15.26287141      21.31115829      11.00011594
C        15.80690624      20.31989071      11.80885462
C        14.08873876      21.73848322      12.96967612
C        14.30374521      22.11542438      11.67111895
C        21.67401904      17.11106935      13.55243593
C        21.74395653      18.30810941      12.60705102
C        22.91429321      18.15918761      11.62932865
C        23.27960325      19.35381042      10.75276069
C        21.64649212      19.23386504       8.94379214
C        20.12584581      19.24483969       9.05889093
C        19.61902605      20.52948852       9.69636869
C        17.84077739      19.39528910      10.60541341
C        16.76991109      19.32894452      11.49375654
C        18.22627973      17.25977525      11.51620187
C        18.63976118      18.24000577      10.61640360
C        18.93765789      10.05153444      11.51610978
C        17.90779065      10.25884132      12.62406059
C        18.41202025       9.75215269      13.97428085
C        17.54799069      10.10604409      15.17922324
C        18.39137417      12.26676597      15.81392963
C        18.66927095      13.47213379      14.93928056
C        17.40359956      14.24075001      14.59959244
C        18.58174796      15.12586948      12.79998613
C        18.82680744      16.00140406      11.74791753
C        20.19114815      13.89189489      11.66883882
C        19.36525090      13.94849958      12.76002898
S         9.17590280      21.49332493       9.92107815
S        15.08681034      20.39712410      13.41162688
S        21.81972424      19.85511826      13.60720857
S        16.77290233      17.79437460      12.35251924
S        16.36707890       9.39485834      12.11467406
S        20.04287146      15.30532884      10.67931983
O         8.00000000      22.32636273       9.68934187
O         9.07632821      20.16816917      10.54114138
O         9.87149118      21.26548350       8.43084846
O        12.15569576      23.64664214       8.61083712
O        15.55770265      21.46585918       9.69113867
O        13.65423910      23.14808052      11.06409601
O        23.22667423      19.95575381      14.09825436
O        20.81704387      19.67317360      14.69827025
O        21.44811434      20.97226836      12.68185470
O        22.18801914      19.93628070      10.03790264
O        18.17949890      20.48103151       9.88294969
O        19.75828340      18.09564992       9.88110158
O        16.43601361       8.00000000      12.53888643
O        16.03219371       9.76993906      10.73700079
O        15.22873639      10.11218266      13.08749984
O        17.31131613      11.51315307      15.28488795
O        17.70378221      15.39884092      13.79066384
O        19.29467098      12.98890081      13.72503960
H        10.97564837      22.90454573      12.82574760
H        10.22543454      21.30637876      12.61574277
H         9.22658360      22.77810986      12.56768776
H        11.40562805      22.01043181      10.52245278
H        10.17380597      20.34330981       8.39819488
H        11.11474282      24.47844942      11.01850128
H         9.43491416      24.36094203      10.49065752
H        10.17934169      23.71032491       8.19436608
H        10.84944103      25.27179080       8.69306717
H        12.93154774      25.19944647       9.78518176
H        13.75758652      24.90418239       8.23797156
H        15.16907200      24.08898766       9.99729246
H        13.67276127      21.68351098       8.82791341
H        15.03580977      22.53486550       8.04161222
H        13.43295023      22.20539983      13.69080371
H        21.67123109      16.17883086      12.97471816
H        20.77200511      17.15313012      14.16748778
H        22.54432709      17.09978976      14.21778902
H        20.80619426      18.40986556      12.05202843
H        22.68773400      17.28407797      11.00180359
H        23.81905693      17.90832411      12.20005488
H        23.65951637      20.16938469      11.37366861
H        24.07669747      19.05553121      10.05112400
H        21.98308714      18.18757771       8.89107380
H        21.93228269      19.72945568       8.00000000
H        19.66208017      19.09188912       8.07343865
H        20.10418153      20.69804677      10.66645137
H        19.81017368      21.37783365       9.03545171
H        19.84370469      10.60288585      11.78629833
H        18.57527057      10.42165765      10.55487746
H        19.20022276       8.99344491      11.41255369
H        17.62252249      11.31475523      12.69258230
H        14.70898807      10.70704774      12.52283160
H        19.41312413      10.18406973      14.10552548
H        18.53678055       8.66289438      13.93418770
H        16.55896055       9.64643841      15.10802852
H        18.02620547       9.72911470      16.09639057
H        19.31326447      11.67223133      15.88480061
H        18.13857543      12.61777038      16.82731042
H        19.38011186      14.14029964      15.45216821
H        16.70270206      13.59167503      14.06154358
H        16.92893082      14.62424435      15.50600890
H        20.90221920      13.11625902      11.42128699
