199
n6_doped | nat=199 | cell a=35.785 b=39.990 c=29.948 A | z-span=13.948 A | vertical vacuum=16.000 A | NON-PERIODIC molecule from /home/user/Yonghoon-DEM-DFT/db/structures/sdcp_n6_doped_ring3.xyz | cell below is a VIEWING BOX (pad 8.00 A per side), NOT a calculation cell - the source calculation has no lattice | source comment: Coordinates from ORCA-job n6_doped E -10051.064688600258
C        11.00086868      29.11602708      21.08162578
C        10.68370504      29.22299102      19.59192865
C        10.45561944      30.67084253      19.16043145
C        10.31662122      30.90003469      17.65975684
C        12.59920429      31.17234553      16.94766713
C        13.80629539      30.32611378      17.29941123
C        13.86906027      29.03784307      16.49588727
C        15.23548825      28.18012010      18.15998286
C        16.03498929      27.22529161      18.75739790
C        14.83494492      28.70968658      20.39793051
C        14.56836761      29.02266061      19.09458058
C        23.12101528      22.29182211      15.02518104
C        22.89030928      23.79600230      15.15248017
C        22.94608706      24.50502723      13.80016123
C        22.56840788      25.98530344      13.81021357
C        20.18356485      25.88262581      13.76027362
C        18.98212597      25.99619243      14.67183531
C        18.90271298      27.32209865      15.41084609
C        17.57801154      26.26583642      16.98777015
C        16.82850938      26.20587093      18.14775693
C        18.09063689      24.06372705      17.64623327
C        18.26709938      25.06731871      16.70529040
C        19.04500136      16.20057062      16.75082785
C        17.85686012      16.58122022      17.62685299
C        17.84318585      15.85949909      18.97244146
C        16.89346199      16.45178099      20.00633164
C        18.14208313      18.31445892      20.87334678
C        18.55586152      19.69306828      20.39323385
C        17.37007135      20.63126470      20.23331526
C        18.56309464      21.78715881      18.62486010
C        18.67472947      22.77226734      17.65334780
C        19.98959540      20.66306061      17.15513411
C        19.29284763      20.61381109      18.35115449
C        22.55147022      12.27503953      15.75731848
C        21.95447759      13.03648310      16.93314031
C        22.72291755      12.74039779      18.22206646
C        22.36490274      13.61809268      19.41846074
C        23.63119713      15.60438833      18.94746864
C        23.43297417      17.01207300      18.41495218
C        22.35092226      17.75770837      19.18210296
C        21.73070331      18.86213306      17.27661946
C        20.80733348      19.63809758      16.60100952
C        21.83196891      17.80565904      15.18692304
C        22.30055538      17.83435168      16.49672318
C        23.88791897       8.94060832      12.86527682
C        24.69586244       9.88105376      13.75603496
C        26.05552228      10.22909291      13.15220729
C        26.83682795      11.31097520      13.88984729
C        26.09949742      13.32082138      12.85517067
C        25.12598085      14.46351303      13.01842783
C        25.25558300      15.18762475      14.35003174
C        23.10463338      15.95975411      14.00958359
C        21.97464415      16.72455723      14.27717645
C        21.46767744      14.59510900      13.01651482
C        22.83094891      14.80117918      13.26826369
C        17.05927704       9.55239062       9.81946221
C        15.98374408      10.43224558      10.45269256
C        15.26238224       9.72246672      11.59730824
C        14.36913156      10.60988851      12.45936816
C        15.90039338      11.48336367      14.09457066
C        17.28801933      12.04097588      13.88853941
C        17.25763971      13.49581812      13.47198828
C        19.48205567      13.10185921      12.79135093
C        20.83155397      13.41519128      12.58654386
C        20.24660239      11.01401520      12.13089818
C        19.17576819      11.73413869      12.57992697
S         9.20270941      28.18254321      19.27083834
S        15.94188591      27.38168794      20.50383267
S        24.16038150      24.45036467      16.30898165
S        16.98992039      24.62649334      18.89947841
S        16.35981282      16.22091376      16.62612169
S        19.71823480      22.19848969      16.35379492
S        20.17092329      12.55623143      17.05231491
S        20.68597749      19.11366591      14.92639830
S        24.89978913       9.05384281      15.39308998
S        20.54387876      15.97275609      13.59277095
S        14.82527789      10.93365284       9.11857292
S        21.68475272      11.98529285      12.00502155
O         8.00000000      28.97257276      19.51556584
O         9.39811544      26.86114759      19.87593363
O         9.27475367      27.96334360      17.62698055
O        11.42475225      30.37571343      16.92269827
O        15.05297110      28.28690765      16.81890224
O        13.72192086      30.02339850      18.71027716
O        25.37658513      24.76171707      15.56404691
O        24.17724078      23.61914030      17.51546766
O        23.54011782      25.92416238      16.74198168
O        21.33837910      26.24725708      14.49002205
O        17.71190520      27.37876546      16.21842947
O        19.07887067      24.91350252      15.62705767
O        16.01621987      14.80338879      16.70696725
O        16.47940246      16.89314115      15.32398073
O        15.15470937      17.01514296      17.45628827
O        17.02565422      17.88022022      20.12240278
O        17.79397699      21.92111386      19.73739390
O        19.23408355      19.50669975      19.12519603
O        20.17155794      11.08263795      17.24494459
O        19.60897700      12.99048291      15.72303321
O        19.60129237      13.33470473      18.19287390
O        22.36005249      15.02129475      19.11356036
O        22.06545476      19.03577889      18.57802582
O        23.09503765      16.87668816      17.00543910
O        26.12531026       8.25872630      15.37528928
O        23.61384239       8.48929304      15.80164820
O        25.23990775      10.31428414      16.40833398
O        26.09261234      12.52862034      14.02581395
O        24.35396451      16.31008940      14.39835955
O        23.78788613      13.92387525      12.87880917
O        13.82258087       9.89133989       8.92197049
O        15.59646957      11.48751070       8.00000000
O        14.00444071      12.20128691       9.80472491
O        15.06721013      11.74650112      12.96743949
O        18.59498609      14.00561834      13.18987721
O        17.93979197      11.24476634      12.84362091
H        11.89803444      29.70956870      21.28190865
H        11.18968492      28.08279087      21.37976435
H        10.18334675      29.51788214      21.68952607
H        11.47954172      28.76656966      18.99226078
H         9.58557250      27.05587816      17.47599053
H        11.31820552      31.23693183      19.53614468
H         9.56556779      31.06838281      19.66391548
H         9.43364903      30.39320013      17.26225635
H        10.20081133      31.97704801      17.46244798
H        12.52512131      31.99038900      17.67835853
H        12.76125418      31.62144916      15.95435563
H        14.72343906      30.91227178      17.12206403
H        12.97577838      28.43216688      16.69462666
H        13.93061937      29.25465500      15.42619740
H        14.46467110      29.19947750      21.28681289
H        22.34931873      21.87000514      14.37307239
H        23.05808395      21.79349075      15.99540650
H        24.09762735      22.07634372      14.57879542
H        21.93618273      23.99725024      15.65652091
H        22.99136906      25.78960040      17.53196007
H        22.27554948      23.94807486      13.13230192
H        23.95301342      24.40978325      13.37530669
H        23.32217252      26.57305201      14.33978329
H        22.51608253      26.35523299      12.77332001
H        20.23292975      24.84525072      13.39207293
H        20.04041229      26.54612021      12.88878379
H        18.06401079      25.85255027      14.08029178
H        19.78981718      27.45399163      16.04202204
H        18.82966962      28.15157260      14.70286121
H        19.96271825      16.30854347      17.33869655
H        19.09667172      16.85989649      15.88351282
H        19.00188362      15.15838987      16.42140974
H        17.81733635      17.66800745      17.77826893
H        15.01106117      17.85999361      17.00087207
H        18.87703803      15.88934645      19.34011851
H        17.63674897      14.79243831      18.83269464
H        15.84990988      16.28854785      19.72685136
H        17.06174332      15.97448974      20.98397844
H        19.00664590      17.64271608      20.75940725
H        17.89447298      18.36702290      21.94829319
H        19.27866568      20.12734593      21.10141054
H        16.63660227      20.19963251      19.54348478
H        16.89989069      20.81726768      21.20185340
H        23.60293330      12.55194284      15.59840308
H        22.00243270      12.48578944      14.83832731
H        22.46648079      11.19350090      15.93571609
H        21.93961994      14.11712215      16.73564161
H        23.79951136      12.82981372      18.00336133
H        22.54787469      11.69418566      18.51382017
H        21.34423450      13.40321161      19.73950088
H        23.06156940      13.42267747      20.25075220
H        24.25937370      15.05342387      18.22797360
H        24.17996585      15.65254895      19.90657153
H        24.37967714      17.56909117      18.46805871
H        21.43150332      17.16387859      19.22035691
H        22.69934362      17.96464891      20.19723163
H        23.73134976       9.42660705      11.89632444
H        22.91535863       8.71659107      13.30876451
H        24.42151573       8.00000000      12.69182213
H        24.12211441      10.79225648      13.96957450
H        24.39132563      10.70518586      16.68560655
H        25.86960572      10.54171230      12.11578257
H        26.67529257       9.32563474      13.09955462
H        27.07529594      10.99426167      14.90771575
H        27.78470279      11.50683699      13.36353997
H        25.80386534      12.74748799      11.96206274
H        27.10645143      13.73686511      12.67184075
H        25.28414860      15.18390140      12.19996607
H        25.03671462      14.50294994      15.17759002
H        26.26168362      15.59770825      14.46724982
H        17.79446118       9.31011883      10.59309279
H        17.56846936      10.06359655       8.99960314
H        16.63364419       8.61561692       9.44462010
H        16.41940654      11.37335951      10.80785717
H        14.45223695      13.01795001       9.53083038
H        16.05207314       9.29043413      12.22604809
H        14.67159686       8.88705380      11.20112729
H        13.53153966      11.00839881      11.88134510
H        13.95188673      10.01334294      13.28549236
H        15.98811045      10.40594356      14.29104849
H        15.47098082      11.95913961      14.98935339
H        17.87914263      11.94030058      14.80965666
H        16.65169909      13.63592888      12.57058243
H        16.87388225      14.11494022      14.28699057
H        20.27602358       9.95905241      11.89547262
