n6_doped | nat=199 | cell a=35.785 b=39.990 c=29.948 A | z-span=13.948 A | vertical vacuum=16.000 A | NON-PERIODIC molecule from /home/user/Yonghoon-DEM-DFT/db/structures/sdcp_n6_doped_ring3.xyz | cell below is a VIEWING BOX (pad 8.00 A per side), NOT a calculation cell - the source calculation has no lattice | source comment: Coordinates from ORCA-job n6_doped E -10051.064688600258
1.0
     35.784702785886     0.000000000000     0.000000000000
      0.000000000000    39.990388997996     0.000000000000
      0.000000000000     0.000000000000    29.948293188391
  C  S  O  H
  66  12  36  85
Cartesian
     11.000868677069    29.116027079051    21.081625778436
     10.683705037491    29.222991016253    19.591928653124
     10.455619442402    30.670842528283    19.160431451540
     10.316621217480    30.900034685841    17.659756842823
     12.599204286072    31.172345529005    16.947667127073
     13.806295393917    30.326113778474    17.299411234109
     13.869060267328    29.037843074434    16.495887272799
     15.235488250454    28.180120102720    18.159982862607
     16.034989294651    27.225291607803    18.757397897162
     14.834944919424    28.709686584085    20.397930510961
     14.568367611674    29.022660606486    19.094580580244
     23.121015283794    22.291822108016    15.025181042434
     22.890309275266    23.796002296439    15.152480171608
     22.946087059490    24.505027225383    13.800161233494
     22.568407883362    25.985303442307    13.810213574661
     20.183564851595    25.882625808501    13.760273620765
     18.982125965844    25.996192430922    14.671835314159
     18.902712980652    27.322098654413    15.410846086726
     17.578011542763    26.265836416520    16.987770147548
     16.828509382414    26.205870929239    18.147756928582
     18.090636888574    24.063727050226    17.646233271369
     18.267099382931    25.067318710098    16.705290403152
     19.045001360664    16.200570619017    16.750827854228
     17.856860116977    16.581220221338    17.626852994046
     17.843185850426    15.859499094494    18.972441462314
     16.893461992649    16.451780990332    20.006331638154
     18.142083132822    18.314458919429    20.873346784097
     18.555861523208    19.693068279775    20.393233846718
     17.370071351031    20.631264698199    20.233315258289
     18.563094637124    21.787158806190    18.624860098201
     18.674729473684    22.772267335178    17.653347801879
     19.989595403136    20.663060606643    17.155134114278
     19.292847625123    20.613811090854    18.351154486003
     22.551470219312    12.275039530442    15.757318484841
     21.954477592478    13.036483096128    16.933140313839
     22.722917553789    12.740397788307    18.222066456320
     22.364902735236    13.618092679938    19.418460743437
     23.631197129868    15.604388332690    18.947468642515
     23.432974173083    17.012072996406    18.414952182631
     22.350922257465    17.757708374943    19.182102957505
     21.730703309563    18.862133055886    17.276619461411
     20.807333482268    19.638097580201    16.601009523110
     21.831968908151    17.805659038394    15.186923043903
     22.300555383072    17.834351680876    16.496723184332
     23.887918966328     8.940608323887    12.865276817706
     24.695862439927     9.881053763335    13.756034959545
     26.055522277103    10.229092910704    13.152207289672
     26.836827951755    11.310975195116    13.889847287139
     26.099497424531    13.320821384261    12.855170674598
     25.125980853171    14.463513032066    13.018427828027
     25.255582997812    15.187624747252    14.350031743613
     23.104633382334    15.959754105253    14.009583594437
     21.974644147979    16.724557229896    14.277176447666
     21.467677439004    14.595108998766    13.016514824859
     22.830948913619    14.801179175759    13.268263691994
     17.059277038698     9.552390624710     9.819462213628
     15.983744083633    10.432245577673    10.452692559979
     15.262382238769     9.722466718027    11.597308244064
     14.369131558773    10.609888510724    12.459368164226
     15.900393383842    11.483363665607    14.094570663335
     17.288019329756    12.040975881747    13.888539408345
     17.257639706801    13.495818121766    13.471988283971
     19.482055665790    13.101859210096    12.791350927939
     20.831553966791    13.415191275234    12.586543862769
     20.246602385910    11.014015200384    12.130898179999
     19.175768187360    11.734138687170    12.579926973009
      9.202709408974    28.182543205615    19.270838337158
     15.941885906052    27.381687944765    20.503832674859
     24.160381504715    24.450364670678    16.308981645130
     16.989920389371    24.626493337666    18.899478409214
     16.359812822716    16.220913757031    16.626121690754
     19.718234796956    22.198489694638    16.353794924181
     20.170923289696    12.556231425147    17.052314911220
     20.685977489309    19.113665914801    14.926398304398
     24.899789130021     9.053842807044    15.393089982901
     20.543878759151    15.972756086185    13.592770949409
     14.825277893986    10.933652840211     9.118572921916
     21.684752719134    11.985292845179    12.005021549451
      8.000000000000    28.972572757395    19.515565837014
      9.398115441568    26.861147589777    19.875933625405
      9.274753671398    27.963343603372    17.626980551135
     11.424752245364    30.375713426793    16.922698265993
     15.052971095799    28.286907648298    16.818902244700
     13.721920855044    30.023398496355    18.710277158978
     25.376585130724    24.761717069404    15.564046908253
     24.177240776723    23.619140299985    17.515467664384
     23.540117818137    25.924162376604    16.741981681335
     21.338379099410    26.247257082490    14.490022051815
     17.711905204235    27.378765455514    16.218429469319
     19.078870666292    24.913502519932    15.627057668728
     16.016219870239    14.803388785523    16.706967253531
     16.479402462481    16.893141148781    15.323980725989
     15.154709371617    17.015142964971    17.456288271485
     17.025654219896    17.880220223428    20.122402784258
     17.793976990675    21.921113863219    19.737393901020
     19.234083548774    19.506699750215    19.125196027347
     20.171557936270    11.082637945573    17.244944592119
     19.608976995295    12.990482913054    15.723033209040
     19.601292372804    13.334704734665    18.192873897732
     22.360052493090    15.021294751793    19.113560362889
     22.065454759737    19.035778888131    18.578025816111
     23.095037649646    16.876688161640    17.005439095105
     26.125310258153     8.258726298511    15.375289275735
     23.613842387643     8.489293038812    15.801648197544
     25.239907747168    10.314284135406    16.408333981211
     26.092612343551    12.528620335159    14.025813950756
     24.353964509853    16.310089403546    14.398359548410
     23.787886126830    13.923875250972    12.878809170517
     13.822580872751     9.891339891883     8.921970485862
     15.596469573878    11.487510697783     8.000000000000
     14.004440712591    12.201286913743     9.804724909902
     15.067210130993    11.746501116216    12.967439486899
     18.594986093770    14.005618340243    13.189877214605
     17.939791970740    11.244766340428    12.843620913509
     11.898034438706    29.709568704280    21.281908645507
     11.189684915017    28.082790874357    21.379764349945
     10.183346749449    29.517882139245    21.689526066474
     11.479541721450    28.766569664788    18.992260777188
      9.585572503573    27.055878158588    17.475990527786
     11.318205518456    31.236931826444    19.536144680256
      9.565567791730    31.068382809106    19.663915482636
      9.433649025791    30.393200126241    17.262256349246
     10.200811329180    31.977048014797    17.462447984180
     12.525121309991    31.990388997996    17.678358533120
     12.761254175497    31.621449157225    15.954355631043
     14.723439060372    30.912271781047    17.122064025072
     12.975778384339    28.432166882622    16.694626660545
     13.930619366731    29.254654997266    15.426197402595
     14.464671103385    29.199477501321    21.286812887333
     22.349318727583    21.870005135438    14.373072394067
     23.058083948621    21.793490745551    15.995406501843
     24.097627350066    22.076343720353    14.578795423428
     21.936182731840    23.997250238537    15.656520910384
     22.991369058267    25.789600396839    17.531960068551
     22.275549483666    23.948074862634    13.132301923772
     23.953013422294    24.409783251424    13.375306687003
     23.322172517602    26.573052014142    14.339783287110
     22.516082527434    26.355232989847    12.773320013784
     20.232929748075    24.845250724701    13.392072926478
     20.040412287147    26.546120210914    12.888783788817
     18.064010789855    25.852550268244    14.080291776018
     19.789817178424    27.453991632263    16.042022035688
     18.829669622641    28.151572602475    14.702861205554
     19.962718247861    16.308543467455    17.338696548644
     19.096671722808    16.859896494370    15.883512819910
     19.001883617326    15.158389871068    16.421409736190
     17.817336348686    17.668007453530    17.778268934511
     15.011061172993    17.859993613231    17.000872068971
     18.877038033171    15.889346446314    19.340118514427
     17.636748968091    14.792438306254    18.832694640113
     15.849909875725    16.288547851389    19.726851362508
     17.061743316409    15.974489743087    20.983978437392
     19.006645897321    17.642716084038    20.759407246119
     17.894472976198    18.367022903734    21.948293188391
     19.278665683664    20.127345929492    21.101410536047
     16.636602274638    20.199632513510    19.543484775172
     16.899890690750    20.817267683308    21.201853401966
     23.602933296803    12.551942842050    15.598403079270
     22.002432695377    12.485789441625    14.838327305968
     22.466480786589    11.193500900272    15.935716094372
     21.939619944376    14.117122145816    16.735641613819
     23.799511359452    12.829813716441    18.003361333898
     22.547874694217    11.694185659264    18.513820169391
     21.344234497382    13.403211611009    19.739500880027
     23.061569397266    13.422677467269    20.250752196061
     24.259373703245    15.053423865417    18.227973595774
     24.179965846504    15.652548952288    19.906571530970
     24.379677139416    17.569091171092    18.468058707567
     21.431503317715    17.163878590202    19.220356912696
     22.699343615444    17.964648912448    20.197231629384
     23.731349760548     9.426607054341    11.896324441257
     22.915358625087     8.716591072431    13.308764505536
     24.421515733276     8.000000000000    12.691822131354
     24.122114409635    10.792256483836    13.969574499980
     24.391325628384    10.705185858513    16.685606549899
     25.869605720551    10.541712297985    12.115782568199
     26.675292570394     9.325634737444    13.099554619974
     27.075295935715    10.994261667803    14.907715745907
     27.784702785886    11.506836987969    13.363539965245
     25.803865342962    12.747487986849    11.962062740820
     27.106451425994    13.736865106503    12.671840752713
     25.284148602474    15.183901399540    12.199966074783
     25.036714619661    14.502949943211    15.177590018860
     26.261683623296    15.597708247316    14.467249822385
     17.794461175826     9.310118833650    10.593092794762
     17.568469355978    10.063596548269     8.999603141290
     16.633644193004     8.615616920065     9.444620103280
     16.419406540362    11.373359510411    10.807857169699
     14.452236945429    13.017950008554     9.530830384394
     16.052073135674     9.290434128539    12.226048094292
     14.671596858851     8.887053802766    11.201127293807
     13.531539656147    11.008398810010    11.881345097623
     13.951886730115    10.013342936930    13.285492362098
     15.988110445701    10.405943562071    14.291048493578
     15.470980821439    11.959139609325    14.989353394454
     17.879142630728    11.940300580348    14.809656659186
     16.651699093626    13.635928879409    12.570582427997
     16.873882248836    14.114940224503    14.286990568611
     20.276023580960     9.959052408611    11.895472619591
