54
Lattice="9.7977 0.0 0.0 0.0 9.7977 0.0 0.0 0.0 9.7977" Properties=species:S:1:pos:R:3:spacegroup_kinds:I:1:momenta:R:3:forces:R:3 spacegroup="P 1" unit_cell=conventional occupancy="_JSON {\"0\": {\"Nd\": 1.0}, \"1\": {\"P\": 1.0}, \"2\": {\"Nd\": 1.0}, \"3\": {\"P\": 1.0}, \"4\": {\"S\": 1.0}, \"5\": {\"S\": 1.0}, \"6\": {\"S\": 1.0}, \"7\": {\"S\": 1.0}, \"8\": {\"S\": 1.0}, \"9\": {\"S\": 1.0}, \"10\": {\"S\": 1.0}, \"11\": {\"S\": 1.0}, \"12\": {\"O\": 1.0}, \"13\": {\"O\": 1.0}, \"14\": {\"S\": 1.0}, \"15\": {\"S\": 1.0}, \"16\": {\"S\": 1.0}, \"17\": {\"O\": 1.0}, \"18\": {\"S\": 1.0}, \"19\": {\"S\": 1.0}, \"20\": {\"Cl\": 1.0}, \"21\": {\"Cl\": 1.0}, \"22\": {\"Cl\": 1.0}, \"23\": {\"Cl\": 1.0}, \"24\": {\"S\": 1.0}, \"25\": {\"Cl\": 1.0}, \"26\": {\"S\": 1.0}, \"27\": {\"Cl\": 1.0}, \"28\": {\"Li\": 1.0}, \"29\": {\"Li\": 1.0}, \"30\": {\"Li\": 1.0}, \"31\": {\"Li\": 1.0}, \"32\": {\"Li\": 1.0}, \"33\": {\"Li\": 1.0}, \"34\": {\"Li\": 1.0}, \"35\": {\"Li\": 1.0}, \"36\": {\"Li\": 1.0}, \"37\": {\"Li\": 1.0}, \"38\": {\"Li\": 1.0}, \"39\": {\"Li\": 1.0}, \"40\": {\"Li\": 1.0}, \"41\": {\"Li\": 1.0}, \"42\": {\"Li\": 1.0}, \"43\": {\"Li\": 1.0}, \"44\": {\"Li\": 1.0}, \"45\": {\"Li\": 1.0}, \"46\": {\"Li\": 1.0}, \"47\": {\"Li\": 1.0}, \"48\": {\"Li\": 1.0}, \"49\": {\"Li\": 1.0}, \"50\": {\"Li\": 1.0}, \"51\": {\"Li\": 1.0}, \"52\": {\"Li\": 1.0}, \"53\": {\"Li\": 1.0}}" charge=0 spin=0 energy=-235.1547842166725 free_energy=-235.1547842166725 stress="-0.004134208261975832 -9.359790309552721e-05 0.0006133762126955032 -9.359790309552721e-05 -0.009602694662572093 0.002768687383660738 0.0006133762126955032 0.002768687383660738 -0.0032647399044830223" pbc="T T T"
Nd       4.09883849       5.04368870       5.01212352        0       0.61452150      -0.56535586       0.91655860       0.00183541       0.00203201      -0.00280909
P        3.57631552      -0.12671791       1.07547244        1      -0.03093239      -1.06916086       0.40669049      -0.00041743       0.00026132       0.01059777
Nd       0.68370568       5.09846648       1.11081217        2      -2.16316254      -1.56193731       2.92581962      -0.00301891      -0.01494823       0.00579210
P        0.15369322      -0.01548627       5.92775170        3       0.27740050      -0.00783725       1.10853109       0.03830674       0.00239264      -0.01968448
S        5.67887357       5.98973217       7.03634164        4       0.99633625       1.00611430       1.73749961      -0.00146242       0.00889560       0.00218323
S        5.82115657       3.12359939       4.19904342        5       0.46460721      -0.83330624      -1.75857707      -0.00317060       0.00263574      -0.00662593
S        2.63739073       6.16149291       2.97480324        6       0.66261810      -1.26361700       1.13372616       0.00170782      -0.01012930      -0.00736143
S        2.67921264       3.26810577       6.61168075        7      -0.78972300       1.03858398       0.96589629      -0.00763760       0.00483326      -0.00357491
S        3.90136589       1.67093277       0.09759082        8      -0.13923783       2.04140810      -0.24907356      -0.00529888      -0.01101727      -0.01207555
S        4.73388754       8.30121358       9.80287159        9      -0.95530356       0.24940562      -0.48258193      -0.00562170      -0.00580416       0.01392174
S        1.62106739      -0.63602385      11.00618543       10       0.03282609       0.01004872       1.29589799       0.00107750      -0.00490785      -0.00056643
S        4.48734291       9.72051804       2.89973937       11      -1.29943051       0.22024228       0.78032409      -0.00185543       0.00873251       0.00975423
O        2.69377680       4.88473344      -0.13950822       12       1.02389166       0.31329798      -0.29045146      -0.00590639      -0.00227067      -0.00724442
O        0.22492158       3.16762299       9.81426482       13       0.55947218       0.42974555       0.57005629      -0.00059900      -0.01234772      -0.00683189
S        8.55123291       7.03390377      10.14240803       14       0.24677252       0.83584611      -2.07265906       0.00930839      -0.00346842      -0.00090281
S        9.07287804       4.73423572       3.50641887       15      -0.92205258       1.18718818      -1.80035773      -0.01865211       0.00927486       0.00434222
S        0.71170876      -0.05345460       7.91184691       16      -0.12723533      -0.50662842      -0.64390200       0.00395490       0.00469782       0.00326299
O        1.41814581       9.74021883       5.01278173       17       0.01629245       0.17496390       0.78472873      -0.02878548       0.00483927       0.02021457
S        9.00344174       1.76238821       5.56101425       18      -2.49290955      -0.54374481      -0.48113066       0.00408924       0.00051792      -0.00279991
S        8.77757588       8.17590273       5.47943203       19      -0.64147503      -1.51024381      -0.38049364       0.00502793      -0.00268085      -0.00113463
Cl       2.04628082       2.58158942       2.92648640       20       0.00119024      -0.87705170       0.75953254      -0.01129745      -0.00873307      -0.00257404
Cl       2.22427115       6.90669581       6.42929638       21      -0.89453966      -1.93316295       0.64200081       0.00549643       0.00607565      -0.00864063
Cl       7.17380440       1.82852010       8.31379734       22       0.43970419       1.27802651      -1.41192857       0.00304762       0.00857623      -0.00668359
Cl       6.14154183       6.84297973       3.66403305       23       0.68093398       0.40428300      -0.93646997      -0.01050929       0.00096613      -0.00506891
S       -1.59182040       0.85467366       1.91580292       24       0.44213096      -0.05238944      -0.30694287       0.00214108       0.00254405       0.00587069
Cl      -0.59576292       5.00278544       7.25004706       25      -1.03082457       0.21326251      -2.90468341       0.00095398       0.00082562      -0.01268126
S        4.73321554      -0.07913923       6.18401626       26       0.37195089      -0.81629434       0.01612297       0.00289074       0.00963421       0.00152589
Cl       5.98935158       4.38358438       0.66232661       27      -1.16520614       1.78765036      -0.98970060       0.01639545      -0.01989512       0.00505608
Li       0.85244894       3.41260235      -4.94130478       28      -0.55245004       0.22503428      -0.45817058      -0.00346146       0.00125589       0.01378349
Li       0.61664011       1.70092126       1.09128911       29      -0.49487781      -0.11225083       0.01777134       0.00117140      -0.00358291       0.00287854
Li       3.53261495       6.38464310      10.56857329       30      -0.17419688      -0.02325497       0.69065574      -0.02798077       0.00943685      -0.00863721
Li       8.08265285      12.38754795       3.50603527       31      -0.97601166      -0.42230934      -0.29216130      -0.00462056      -0.00723495      -0.00057298
Li       8.17763468      -7.08160050      10.22007666       32       0.02702126       0.12279417       0.02538088      -0.00361823      -0.00842979      -0.00883256
Li       7.26947493       5.63210466       8.72578205       33       1.05678949      -0.76706053       0.11135600       0.00529716      -0.00600031       0.00173443
Li       5.34899477      10.25261056      -1.39357535       34       0.97128397      -0.72114991       0.26984640       0.02454028      -0.01405996       0.01395976
Li      -0.32896289      12.45323740       7.98063429       35       0.60115012       0.42311803      -0.76374555      -0.01112855      -0.00416607      -0.01219196
Li       1.82868538       5.13014890       7.83964407       36       1.38864355       0.80675775       0.20011117      -0.00887626       0.00156423      -0.00922676
Li       9.46029241       7.36562675       7.77342700       37       0.28072819       0.23524353      -1.17882368      -0.01281008      -0.00847593      -0.00140615
Li      10.40183408       6.52302776       4.38844989       38       0.74159473      -0.66043382       0.49231573      -0.00212367      -0.01144777      -0.01404808
Li       7.37817991       5.00854087       5.21970129       39       0.21222013       1.07170564      -0.17468491       0.01914182       0.00948182       0.01455182
Li       2.99626026       8.65576235       4.61743455       40       0.70950828      -0.82648637       1.11194633      -0.02258993       0.01116228      -0.00232654
Li       6.49869934       1.60318241       5.98647573       41       1.02412732      -0.30846624      -0.64787079       0.00770768      -0.00617582      -0.01440107
Li       7.37426640       5.68728749      11.91338749       42      -0.50178006       0.53225644       0.44822615       0.00010052       0.01250130       0.00862364
Li       6.32707082       8.00797897       5.73655765       43      -0.04053752       0.47812803      -0.80059478       0.00173302       0.00418673      -0.01107413
Li       0.58940211      10.18786154       3.28084331       44      -0.16170078       0.03760500      -0.30672554       0.00373375       0.00460525       0.00440788
Li       2.72504539       0.89713452       6.93993326       45       1.03924378      -0.38131936       0.28678946       0.03337212       0.01084339       0.03494935
Li      -3.02716944      -1.19680058       1.96269550       46      -0.23339587       0.34743719       0.48153214      -0.01411738       0.01667165       0.00398147
Li       4.15156386       7.80361033       7.47419310       47       0.14422004      -0.21618444       0.47601245       0.00946218      -0.00581385       0.00362537
Li       3.91924299      11.47148936       4.56017601       48       0.56566021       0.09601496       0.35750867      -0.00343559       0.00631316       0.01033414
Li       3.61205460       3.88970916       1.41942618       49      -0.31707156      -0.21569202       0.07592337       0.00077532       0.00012601       0.00461567
Li       4.30937991       4.55375870      -1.27415510       50       0.82588783      -0.07514438      -0.24013560      -0.00459358      -0.00046985      -0.00392351
Li       2.04052061       3.08755835       9.12213659       51      -0.80154143      -0.07737556       0.09071347      -0.00400888      -0.00369464      -0.00612332
Li       5.88307299       1.77362969       2.13632819       52      -0.36239698      -0.35438268       0.55589229       0.01143668       0.01574122      -0.00329774
Li       8.83292269       9.37460737       9.81035543       53       0.84926726       1.13607810      -0.16350030       0.01289225      -0.00587000       0.00335442
