66
Lattice="6.928020110031437 0.0 0.0 3.4640100550157196 5.999841413216687 0.0 17.320050275078597 9.999735688694479 28.28352366219598" Properties=species:S:1:pos:R:3:spacegroup_kinds:I:1:momenta:R:3:forces:R:3 spacegroup="P 1" unit_cell=conventional occupancy="_JSON {\"0\": {\"P\": 1.0}, \"1\": {\"O\": 1.0}, \"2\": {\"S\": 1.0}, \"3\": {\"S\": 1.0}, \"4\": {\"S\": 1.0}, \"5\": {\"Cl\": 1.0}, \"6\": {\"Cl\": 1.0}, \"7\": {\"Nd\": 1.0}, \"8\": {\"S\": 1.0}, \"9\": {\"S\": 1.0}, \"10\": {\"S\": 1.0}, \"11\": {\"S\": 1.0}, \"12\": {\"Cl\": 1.0}, \"13\": {\"S\": 1.0}, \"14\": {\"Nd\": 1.0}, \"15\": {\"S\": 1.0}, \"16\": {\"S\": 1.0}, \"17\": {\"S\": 1.0}, \"18\": {\"S\": 1.0}, \"19\": {\"Cl\": 1.0}, \"20\": {\"S\": 1.0}, \"21\": {\"P\": 1.0}, \"22\": {\"S\": 1.0}, \"23\": {\"S\": 1.0}, \"24\": {\"S\": 1.0}, \"25\": {\"S\": 1.0}, \"26\": {\"Cl\": 1.0}, \"27\": {\"Cl\": 1.0}, \"28\": {\"P\": 1.0}, \"29\": {\"S\": 1.0}, \"30\": {\"S\": 1.0}, \"31\": {\"O\": 1.0}, \"32\": {\"O\": 1.0}, \"33\": {\"Cl\": 1.0}, \"34\": {\"Cl\": 1.0}, \"35\": {\"Li\": 1.0}, \"36\": {\"Li\": 1.0}, \"37\": {\"Li\": 1.0}, \"38\": {\"Li\": 1.0}, \"39\": {\"Li\": 1.0}, \"40\": {\"Li\": 1.0}, \"41\": {\"Li\": 1.0}, \"42\": {\"Li\": 1.0}, \"43\": {\"Li\": 1.0}, \"44\": {\"Li\": 1.0}, \"45\": {\"Li\": 1.0}, \"46\": {\"Li\": 1.0}, \"47\": {\"Li\": 1.0}, \"48\": {\"Li\": 1.0}, \"49\": {\"Li\": 1.0}, \"50\": {\"Li\": 1.0}, \"51\": {\"Li\": 1.0}, \"52\": {\"Li\": 1.0}, \"53\": {\"Li\": 1.0}, \"54\": {\"Li\": 1.0}, \"55\": {\"Li\": 1.0}, \"56\": {\"Li\": 1.0}, \"57\": {\"Li\": 1.0}, \"58\": {\"Li\": 1.0}, \"59\": {\"Li\": 1.0}, \"60\": {\"Li\": 1.0}, \"61\": {\"Li\": 1.0}, \"62\": {\"Li\": 1.0}, \"63\": {\"Li\": 1.0}, \"64\": {\"Li\": 1.0}, \"65\": {\"Li\": 1.0}}" charge=0 spin=0 energy=-287.8741308682933 free_energy=-287.8741308682933 stress="0.0007679251554802691 0.0008696585077954519 0.0028574443622572648 0.0008696585077954519 0.004609797685392932 0.0006326136845512898 0.0028574443622572648 0.0006326136845512898 -0.009721979374919617" pbc="T T T"
P        5.65825378       3.92615317       2.18267506        0       2.28938607       0.65084967       1.14830679       0.00989397      -0.00709413       0.00251869
O        6.93680346       4.51977296       2.88347578        1      -0.47257071       1.00104043       0.95403922       0.00956354      -0.00720727       0.00346969
S        3.99777349       4.95168162       2.81560366        2      -1.60328221       0.14995954       0.87465838       0.00945856      -0.00775703       0.00407461
S        5.54942486       1.91979969       2.55859024        3      -0.14965017       1.87559773      -0.70180729       0.00772463      -0.00826064       0.00059487
S        5.72413507       4.20854202       0.14805597        4       0.68192446       0.77927870      -0.33342460       0.01171787      -0.00618600       0.00362145
Cl       2.21300896       1.95378787       1.09677325        5      -0.87444914      -1.13261016      -0.03943896       0.00475845      -0.00561328      -0.00708255
Cl      -1.30698449      -0.29688637      -0.54936151        6       1.44599952      -1.59447875       0.74410477       0.00990939       0.00139615      -0.00966493
Nd       9.68643343       3.75360631       7.14535562        7      -0.60930902       2.23501258      -0.00950844       0.00550764      -0.00377023       0.00702982
S       12.22577332       4.22824023       6.18469400        8       0.20020883       0.52003820      -0.71601861       0.00587920       0.00115213       0.00159633
S       10.37936761       5.38495652       9.24417596        9      -0.34941348      -1.59842761      -0.62401284      -0.00391285      -0.01148563       0.00949132
S       10.43246365       1.36854641       8.56331391       10      -1.16278378      -2.80245116      -0.71914235      -0.00404906      -0.00360899       0.00319930
S        8.73270801       5.91755845       5.61239557       11      -0.13674312      -0.26904952       0.60677013       0.00600850       0.00285211       0.00870176
Cl       7.30492819       3.12441665       8.82061298       12      -1.10340793       0.70380566       0.93120692       0.00317219      -0.00242827      -0.00076852
S        2.11952074       2.07095210       4.88886170       13      -1.94780503      -1.67991506       0.93121879       0.00636111      -0.00267517      -0.00252993
Nd      15.76216805       9.69591867      13.82475036       14       0.29536225       3.77228431       1.28315936       0.00647237       0.00176248       0.01303592
S       17.91379740       9.64923885      15.41827051       15       2.44478997       0.19981427       1.54203368      -0.00182785      -0.00518650       0.01715101
S       14.35859682       7.66552005      15.20072009       16       0.47048344       0.12811756       2.00653332       0.00231843      -0.00092088       0.00531152
S       17.94491169       5.68722111      15.21065217       17      -0.60002127      -0.43244618       0.20782166      -0.00087267      -0.00470667       0.00241158
S       16.45809561      11.44634235      11.66943213       18       1.21747402       1.11599323       1.61713928      -0.00006718       0.00155260       0.00499241
Cl      13.01456075       9.38090006      12.13291642       19      -2.03592232      -0.27626133       1.28758962      -0.00786739      -0.01343625       0.02015834
S        9.32720265       7.71297457      11.82152121       20       0.53568734      -0.66904165      -0.46738872      -0.00798344       0.00068935       0.00444417
P       15.84725749       9.70066857      20.26264619       21      -0.78688573       1.43356013       0.01251978      -0.00358888      -0.00162760      -0.00297688
S       17.47043334      10.71419471      21.00120888       22      -0.75732983       0.38882880      -0.53171676      -0.00241630      -0.00678177      -0.00007124
S       14.10200603      10.52039896      21.02814710       23       0.22422898      -1.46437299       1.32316073      -0.00055492       0.00493266      -0.00418694
S       15.92821456       7.72398900      20.88920147       24       0.45179139      -0.30387382      -2.04508723      -0.01227395      -0.00080678      -0.00280306
S       15.77564005       9.76607203      18.24109723       25       1.79144135      -2.29306225      -1.99943989      -0.00340120      -0.00654399      -0.00326616
Cl      12.34034248       7.67784163      18.54030903       26       0.36030762      -0.10561749      -1.57258498       0.00103419      -0.00705649       0.00009413
Cl       8.85723257       5.72276167      17.94846641       27      -0.47913489      -0.95441467      -0.82910858      -0.00448229      -0.00873238       0.00422923
P       19.43226362      11.68495061      25.17140290       28       2.72987997      -2.02579611       0.95082031       0.00106843       0.00845269      -0.00429371
S       21.14119102      12.43623077      26.00458285       29      -1.73927604       1.11867118       0.31844668       0.00033808       0.00930808      -0.00078861
S       17.81177903      12.62725059      25.98818436       30      -0.47041993      -0.56458069       0.38365299      -0.00197213       0.00751910      -0.01480805
O       19.36066046      10.13883387      25.39009361       31       1.02848904       0.52564230      -1.51266288      -0.00403712       0.01102474      -0.00567381
O       19.40572779      11.92765983      23.62370310       32      -0.21228066       0.85306798       0.61221204       0.00298679       0.01121134      -0.00633247
Cl      16.07304988       9.52962888      24.21889956       33       1.59866578      -0.40574995      -0.46231543      -0.00958554       0.00887019      -0.00828370
Cl      12.49138037       7.64122480      22.94857150       34       0.71657766       0.79003558      -1.20601822      -0.00112745       0.00671873      -0.01184920
Li       0.54780016       0.26256203       0.83896479       35       0.04348363      -0.13836267       0.30911630       0.00014697      -0.00520616       0.00794082
Li       0.30690002       4.06205796       4.81498352       36      -0.53047575       0.14488141       0.30535982       0.01199921       0.00646516       0.00443356
Li       5.39681796      -2.47516230       2.90794268       37       0.65120677       0.23088026      -0.20040566       0.00760614      -0.00907896      -0.00322111
Li       3.09175020       0.39930376       6.37301317       38      -0.79969643      -0.39527943       0.24914685       0.00207225       0.00123043       0.00061510
Li       4.48660035       1.92634210       0.13500077       39       0.45874536      -0.64830990      -0.86976850       0.01187144      -0.00653703       0.00019931
Li       1.15034275       3.58778069      -0.18495762       40      -0.98940424      -1.49858808       0.17463579       0.01198912      -0.00451095      -0.01653282
Li       5.75929558       4.97441202       8.49369752       41      -0.08265938       0.58382063      -0.81177270       0.00028871      -0.00373134       0.00219809
Li       4.69247886       2.23099513       4.86420334       42      -0.12721182       0.33304088       0.34064778       0.01070718      -0.00214173       0.00102892
Li       5.80283277       1.15861607       7.74840188       43       0.49828063      -0.29835300       0.06495667      -0.00096336      -0.00904301       0.01057512
Li       4.11175898       6.06414972       4.96321043       44       0.13610242      -0.15085218      -0.14521649       0.00420604      -0.00094973       0.00457651
Li      -1.89154849       7.10612985       9.97546936       45       0.03179041      -0.51226307      -0.03377749      -0.00742392      -0.00734555       0.00115948
Li       7.05590306      -0.35259406      11.72771232       46      -0.79539334      -0.45331005       0.74424948      -0.00147322       0.00002366       0.01226740
Li      10.11617181       0.54977552       3.14898301       47       0.40989589       0.90623140      -0.53211493       0.00540283      -0.00036515      -0.00905376
Li       8.69854979       5.67690799      15.19236829       48       0.73915338       0.88132272      -1.62502052      -0.00417160      -0.00902302      -0.04787913
Li       8.20076031       6.20592661      10.24820138       49      -0.32610122      -0.18614498      -0.16777884      -0.00699513       0.00373236       0.01075680
Li      18.08949218       3.05076322      10.34036904       50      -0.08677705      -0.54821880      -0.15472954      -0.02253211       0.00334375       0.01037071
Li       9.82146409       7.84830590      16.62893315       51       1.16379200       0.66462080       0.43985996      -0.02271476      -0.01696256      -0.00287842
Li      10.76138372       9.48377122      11.16885186       52      -0.36621883       0.83687907       0.42994892      -0.00382083      -0.00181643      -0.00219795
Li      14.27863508       6.98200688      12.87367446       53       0.11107139       0.78145543      -0.49236997      -0.02843789       0.03954555      -0.01047164
Li      12.01160886       7.74088895      14.43649323       54      -0.71544439      -0.11085493      -0.68661107      -0.00144484      -0.00050785       0.02035356
Li      13.10082028       5.73882414      16.50906828       55       0.08844586      -0.14503819      -0.92822697       0.00136908      -0.00732494       0.01849222
Li      13.44565065       9.59689494      16.44323638       56      -0.06284260       0.22949084      -0.12196090       0.00230105       0.00748429       0.00861279
Li      12.25350444       9.84016178      19.48335117       57      -0.87523865      -1.55161952       0.30690267       0.00138961      -0.00780063       0.00089220
Li      17.43048176       6.51075498      22.49402899       58       0.29699527       0.09416111       0.14631617      -0.00138101       0.00933905      -0.01134052
Li      11.88586073       9.99040140      23.08408045       59      -0.10168910       0.10780240      -1.66533511       0.02095864       0.00940460      -0.00492275
Li      10.58538740       6.38411198      19.40052391       60       0.46054297      -0.00702564       0.15464217      -0.00858648       0.00561661      -0.00568452
Li      14.22432518       6.66327473      19.50239651       61      -0.95796605       0.70584075       0.29117664      -0.00529161      -0.01051700       0.00287182
Li      16.04793123      11.87367164      24.55674524       62      -0.79563549      -0.21905512      -0.68123115      -0.00451996       0.00876901      -0.01802040
Li      14.89761331       7.57973790      23.12763562       63      -0.41171723       0.65432344       0.33820528       0.00075096       0.01084174      -0.00076285
Li      17.73906813       9.08083628      25.94547755       64       0.63582862      -0.55780938       0.42144212      -0.00643472       0.01870548      -0.01318028
Li      14.25879638       9.43086835      25.84559907       65      -0.69287315       0.59688557       0.43399664      -0.00102099       0.02280416      -0.00194485
