66
Lattice="6.928020110031437 0.0 0.0 3.4640100550157196 5.999841413216687 0.0 17.320050275078597 9.999735688694479 28.28352366219598" Properties=species:S:1:pos:R:3:spacegroup_kinds:I:1:momenta:R:3:forces:R:3 spacegroup="P 1" unit_cell=conventional occupancy="_JSON {\"0\": {\"P\": 1.0}, \"1\": {\"S\": 1.0}, \"2\": {\"S\": 1.0}, \"3\": {\"S\": 1.0}, \"4\": {\"S\": 1.0}, \"5\": {\"Cl\": 1.0}, \"6\": {\"Cl\": 1.0}, \"7\": {\"Nd\": 1.0}, \"8\": {\"S\": 1.0}, \"9\": {\"S\": 1.0}, \"10\": {\"S\": 1.0}, \"11\": {\"S\": 1.0}, \"12\": {\"Cl\": 1.0}, \"13\": {\"S\": 1.0}, \"14\": {\"Nd\": 1.0}, \"15\": {\"O\": 1.0}, \"16\": {\"O\": 1.0}, \"17\": {\"S\": 1.0}, \"18\": {\"O\": 1.0}, \"19\": {\"Cl\": 1.0}, \"20\": {\"S\": 1.0}, \"21\": {\"P\": 1.0}, \"22\": {\"S\": 1.0}, \"23\": {\"S\": 1.0}, \"24\": {\"S\": 1.0}, \"25\": {\"S\": 1.0}, \"26\": {\"Cl\": 1.0}, \"27\": {\"Cl\": 1.0}, \"28\": {\"P\": 1.0}, \"29\": {\"S\": 1.0}, \"30\": {\"S\": 1.0}, \"31\": {\"S\": 1.0}, \"32\": {\"S\": 1.0}, \"33\": {\"Cl\": 1.0}, \"34\": {\"Cl\": 1.0}, \"35\": {\"Li\": 1.0}, \"36\": {\"Li\": 1.0}, \"37\": {\"Li\": 1.0}, \"38\": {\"Li\": 1.0}, \"39\": {\"Li\": 1.0}, \"40\": {\"Li\": 1.0}, \"41\": {\"Li\": 1.0}, \"42\": {\"Li\": 1.0}, \"43\": {\"Li\": 1.0}, \"44\": {\"Li\": 1.0}, \"45\": {\"Li\": 1.0}, \"46\": {\"Li\": 1.0}, \"47\": {\"Li\": 1.0}, \"48\": {\"Li\": 1.0}, \"49\": {\"Li\": 1.0}, \"50\": {\"Li\": 1.0}, \"51\": {\"Li\": 1.0}, \"52\": {\"Li\": 1.0}, \"53\": {\"Li\": 1.0}, \"54\": {\"Li\": 1.0}, \"55\": {\"Li\": 1.0}, \"56\": {\"Li\": 1.0}, \"57\": {\"Li\": 1.0}, \"58\": {\"Li\": 1.0}, \"59\": {\"Li\": 1.0}, \"60\": {\"Li\": 1.0}, \"61\": {\"Li\": 1.0}, \"62\": {\"Li\": 1.0}, \"63\": {\"Li\": 1.0}, \"64\": {\"Li\": 1.0}, \"65\": {\"Li\": 1.0}}" charge=0 spin=0 energy=-285.3021150273767 free_energy=-285.3021150273767 stress="-0.007758783944500062 0.002113609459029228 -0.0014522972080280045 0.002113609459029228 -0.004367298795488088 -0.00047561128191724077 -0.0014522972080280045 -0.00047561128191724077 -0.009061523181703753" pbc="T T T"
P        6.45646343       3.80583052       2.11105025        0       1.30775900       2.42703160      -1.85379639      -0.00004706      -0.00989971      -0.00272834
S        8.18368619       4.73870150       2.72696871        1      -2.34981750      -0.14332289      -0.80147039      -0.00371971      -0.00177974       0.00740222
S        4.83879020       4.91800630       2.74142867        2       0.17287550      -0.45518565       1.25806769      -0.02099831       0.00786719      -0.01612269
S        6.43788002       1.89703872       2.87133242        3       0.02307764       2.41926518       0.38315438      -0.00750894       0.00908956      -0.00650613
S        6.32848669       3.62456229       0.08172261        4      -1.92854412       1.35526118       0.39030796       0.00365622      -0.00492264       0.00629729
Cl       2.94087985       1.92533946       0.86149880        5       0.41876064       0.79991956       2.27648232      -0.00517433       0.00743520      -0.00911573
Cl      -0.68752711      -0.09491603      -0.58245202        6      -0.89622446       0.18007133      -0.25796061       0.00081265      -0.00238665      -0.00378316
Nd      11.36459370       7.92165615       7.04854877        7       4.57004174      -2.52071933      -0.21580007      -0.01028074      -0.00123541       0.00161086
S       12.40657294       5.93283171       8.76986876        8      -0.56395893       0.31911564      -0.55282087      -0.00094962       0.00340973       0.00034404
S        9.25870096       7.97818962       9.39141446        9       1.90173611       0.46877964      -0.87456285       0.01418999      -0.01002736       0.00143910
S        9.23037181       3.52919913       8.93485499       10      -0.68270943       1.18392114      -0.07349749       0.00463247       0.00372349       0.02074347
S        9.56467241       6.01198498       6.16403566       11      -0.67924687      -2.02323369       0.87402613       0.00084983       0.00105792       0.01174038
Cl       6.13983937       3.90108556       6.03678868       12      -0.10944403       1.35212178      -4.12781399      -0.01620451      -0.00300524      -0.00094268
S        2.94070170       1.80824760       5.15830719       13       0.04368418      -0.92484241      -3.28469300      -0.00454576      -0.00584451      -0.00360008
Nd      14.02816612       7.55744509      13.49709294       14       2.27392425       1.92544135      -0.38853181       0.00947934       0.01226472       0.00022307
O       16.09740781       7.65019219      12.78889158       15       0.05685712      -0.45378898       0.25806224       0.01076295      -0.00810546       0.00375582
O       13.80574651       5.86779429      14.98518289       16       0.04440986       0.09911690       0.25490878       0.00780157       0.00527409      -0.00592089
S       14.32063999       4.81612945      11.89308912       17      -0.77185098      -2.00869956      -0.39651572       0.00839344       0.01206808       0.00758451
O       12.53788490       7.65788132      11.72185368       18       0.75967378      -1.51640951      -0.53578919      -0.01674728       0.00043644       0.00742574
Cl      11.79780081       8.74517210      14.98631563       19      -0.73138516       1.88948822      -0.26270437       0.00156141      -0.00532086       0.00423221
S        3.94039165       4.55562451      12.80503384       20      -0.12624886      -0.54774968       0.62294991       0.02248856      -0.02183802       0.00638988
P       16.72158485       9.75875168      19.33191798       21      -0.28825239       1.77975617       1.37855459      -0.00699003       0.01572583      -0.00280777
S       18.52344293      10.67820009      19.60739075       22      -1.21055244       0.29405693       0.76133991      -0.01479078       0.03289666       0.01677466
S       15.15530997      10.80853650      20.16476021       23       0.77245107      -1.21879684       0.40504622      -0.00643132       0.00685986       0.00763734
S       16.74054741       7.89051794      20.21777626       24       1.35125074      -0.96027817      -0.13102574      -0.00727408       0.01750026      -0.00206499
S       16.27353498       9.49118306      17.36166319       25      -1.55993196       0.10974466      -0.19475566       0.00972717       0.01816601      -0.00276696
Cl      13.33342980       7.61122759      17.99770661       26       1.23399442       1.22945431       2.39158925       0.00724489       0.00936027      -0.01098368
Cl       9.89440874       5.71444496      16.53530901       27       0.67642289      -2.89379630      -0.06610496      -0.00379039      -0.00129937       0.01292816
P       19.99357895      12.06601565      24.95226295       28       1.34899694       2.39654612       0.78216968      -0.01300394      -0.01560418      -0.02042680
S       21.64860448      13.00697176      25.67600013       29       0.79247359       0.40644046      -0.87476270       0.00551894       0.00624646      -0.00787134
S       18.34384873      13.22353360      25.34840817       30      -0.13960356       1.90203724       0.71042229      -0.00190650      -0.00979815       0.00195888
S       19.70578321      10.27220118      25.89352049       31      -0.75597710      -0.71182188       0.33525842       0.00624535       0.00339565       0.00516358
S       20.22321623      11.80475149      22.92309940       32      -2.01015219       0.03785446       1.20821179      -0.01738022      -0.01216934      -0.00204614
Cl      16.77750841      10.10518311      23.38865635       33      -0.71566255       0.03224861       0.48093838      -0.01121346       0.00121763      -0.00837501
Cl      13.16657492       7.70817087      22.10990433       34       0.00074832      -2.41938313      -0.16747715       0.00285796       0.00278405      -0.00077316
Li       1.91018944       1.87325313       2.95308690       35      -1.09439575      -0.40365235       0.05611613      -0.01465586      -0.01208409      -0.00871130
Li       1.51201028       6.79962487       1.28299681       36      -0.52023975      -0.36174577      -0.13339972      -0.00832523      -0.00988961       0.00423157
Li       4.18930902      -0.87675170      -1.33075533       37       0.74515798       0.67116957       1.31146538       0.01362643      -0.02345825      -0.00787549
Li       6.66858125      -1.76340913       4.66520325       38       0.65665444      -0.31079219       1.49935290      -0.01203068      -0.00440755      -0.00169883
Li       1.04607420       1.77986244      -0.72936895       39       0.52361353      -0.43645842       0.26914660      -0.00107449      -0.00361913       0.00190516
Li       3.90137879       4.05712065       0.49046912       40      -0.51035149      -0.71335418       0.23016063       0.00246411      -0.00629468      -0.00710684
Li       5.27053830       1.85776317       4.93538672       41       0.88733726      -0.02072886      -0.09308742       0.00252295       0.00114514       0.00787653
Li       4.62141174       3.67828836       8.12412323       42      -0.61874071       0.16863838       0.34747364      -0.00809293       0.01556087      -0.00447006
Li      10.04074470      -0.43205461       4.33843959       43      -1.02903885      -0.60519044       1.04581193      -0.00451102      -0.00238911       0.00682747
Li       7.05987955       4.30437311       9.60922650       44       0.49575057      -0.13725232      -0.89490686      -0.00456618       0.01024720      -0.00075877
Li       3.44507311       1.50735427      10.06760316       45      -0.65416476      -0.76330232       0.74769651       0.01080180       0.00287411      -0.00821247
Li       7.98089909       1.82130047      10.20993081       46       0.22641162      -0.21230113       0.04179262       0.00988351       0.00065381      -0.00807745
Li      10.77265084       0.13386355       6.97667908       47      -0.55775867      -0.40510774      -0.01705767       0.00012852       0.01766477       0.01557985
Li       6.35077822      -0.25199793       8.55274180       48       0.19341256      -0.19276536       0.51254650      -0.02233756      -0.00101602       0.01591940
Li       8.83922373      -0.18485316      11.40069032       49      -0.56249448       0.23917158       0.70294413       0.01253207       0.00412965       0.00937586
Li      12.74464484       9.53315231      11.41912766       50      -0.50077014      -0.33196223      -0.49597592      -0.00480952       0.00022895      -0.01386629
Li       9.56362820      -1.46707856      13.94419911       51      -0.40716201       0.03078792      -0.37848141       0.00613194       0.01202974       0.01255071
Li       8.86795228       5.03521778      14.15375363       52      -0.26700772      -0.11506021      -0.18266756       0.00406468       0.00304333      -0.00797914
Li      12.52774928       3.11471071      11.66312365       53       0.75845287      -0.03858354       0.41747372       0.00888135      -0.01227800       0.00359657
Li      10.97028614       7.85619241      12.96906053       54       0.90738562       0.04570164       0.00842326       0.01259096       0.01157648      -0.00763960
Li       9.31422565       6.21121069      11.67649248       55      -0.58091243      -0.06023152      -0.83953808       0.01599331       0.00042094       0.00607479
Li       7.60165415       4.89337468      16.38882394       56       0.29511589      -0.24673321      -0.10813827       0.00613679      -0.00702465      -0.00537605
Li      12.20250630      13.11829023      18.13760628       57       0.24427872       0.58814621      -1.03115873       0.01981433      -0.02793976      -0.01698841
Li      14.57592805       9.72721267      22.28011698       58      -0.47095963      -0.04242238       0.08050663       0.00696886       0.00341390       0.00763295
Li      10.74253422       8.05940133      22.44701385       59      -1.14467218      -1.01029071      -0.83369427       0.02032038      -0.01934906      -0.01163265
Li      12.35516000       6.47055957      16.10007951       60       0.31172775       1.51946402      -0.68170768       0.00874945       0.00314991      -0.00232853
Li      13.86617998       9.98912253      18.12467706       61      -0.72522556      -0.93668412       0.19381944      -0.01736244      -0.01741241       0.01925520
Li      10.58604523       9.32195793      25.49773814       62      -0.36499598       0.19014389      -0.59693352       0.00968705      -0.01212715       0.00085274
Li      21.51380273       5.66944517      21.75737407       63       1.14307697       0.45503860      -0.14887652      -0.03078910       0.01780136       0.01362764
Li      15.61869754      13.20183642      19.90783474       64      -0.23163434      -0.20163340      -0.02608538      -0.00458478      -0.00871503      -0.01848029
Li      12.95149738       6.39142546      24.11897578       65       0.62257311      -0.17165431      -0.71442749       0.01457545       0.00052178      -0.01091965
