66
Lattice="6.928020110031437 0.0 0.0 3.4640100550157196 5.999841413216687 0.0 17.320050275078597 9.999735688694479 28.28352366219598" Properties=species:S:1:pos:R:3:spacegroup_kinds:I:1:momenta:R:3:forces:R:3 spacegroup="P 1" unit_cell=conventional occupancy="_JSON {\"0\": {\"P\": 1.0}, \"1\": {\"S\": 1.0}, \"2\": {\"S\": 1.0}, \"3\": {\"S\": 1.0}, \"4\": {\"S\": 1.0}, \"5\": {\"Cl\": 1.0}, \"6\": {\"Cl\": 1.0}, \"7\": {\"Nd\": 1.0}, \"8\": {\"S\": 1.0}, \"9\": {\"S\": 1.0}, \"10\": {\"S\": 1.0}, \"11\": {\"S\": 1.0}, \"12\": {\"Cl\": 1.0}, \"13\": {\"S\": 1.0}, \"14\": {\"Nd\": 1.0}, \"15\": {\"S\": 1.0}, \"16\": {\"S\": 1.0}, \"17\": {\"O\": 1.0}, \"18\": {\"O\": 1.0}, \"19\": {\"Cl\": 1.0}, \"20\": {\"S\": 1.0}, \"21\": {\"P\": 1.0}, \"22\": {\"S\": 1.0}, \"23\": {\"S\": 1.0}, \"24\": {\"S\": 1.0}, \"25\": {\"S\": 1.0}, \"26\": {\"Cl\": 1.0}, \"27\": {\"Cl\": 1.0}, \"28\": {\"P\": 1.0}, \"29\": {\"S\": 1.0}, \"30\": {\"O\": 1.0}, \"31\": {\"S\": 1.0}, \"32\": {\"S\": 1.0}, \"33\": {\"Cl\": 1.0}, \"34\": {\"Cl\": 1.0}, \"35\": {\"Li\": 1.0}, \"36\": {\"Li\": 1.0}, \"37\": {\"Li\": 1.0}, \"38\": {\"Li\": 1.0}, \"39\": {\"Li\": 1.0}, \"40\": {\"Li\": 1.0}, \"41\": {\"Li\": 1.0}, \"42\": {\"Li\": 1.0}, \"43\": {\"Li\": 1.0}, \"44\": {\"Li\": 1.0}, \"45\": {\"Li\": 1.0}, \"46\": {\"Li\": 1.0}, \"47\": {\"Li\": 1.0}, \"48\": {\"Li\": 1.0}, \"49\": {\"Li\": 1.0}, \"50\": {\"Li\": 1.0}, \"51\": {\"Li\": 1.0}, \"52\": {\"Li\": 1.0}, \"53\": {\"Li\": 1.0}, \"54\": {\"Li\": 1.0}, \"55\": {\"Li\": 1.0}, \"56\": {\"Li\": 1.0}, \"57\": {\"Li\": 1.0}, \"58\": {\"Li\": 1.0}, \"59\": {\"Li\": 1.0}, \"60\": {\"Li\": 1.0}, \"61\": {\"Li\": 1.0}, \"62\": {\"Li\": 1.0}, \"63\": {\"Li\": 1.0}, \"64\": {\"Li\": 1.0}, \"65\": {\"Li\": 1.0}}" charge=0 spin=0 energy=-285.9340040134813 free_energy=-285.9340040134813 stress="-0.004049239286858216 -0.00028997120127180216 0.0010918088602721923 -0.00028997120127180216 -0.003107737662687293 0.0029296796282100588 0.0010918088602721923 0.0029296796282100588 -0.009507045067570672" pbc="T T T"
P        9.44328950       1.90565171       3.57358323        0       0.58133313      -1.22741475       3.13846531      -0.00530675       0.00672174      -0.00051529
S       11.09432234       3.00981347       4.06976858        1       0.34451076       0.06386838       0.21517345      -0.00194071       0.00326563      -0.00414730
S        7.70207413       2.93786278       3.91773515        2       0.22920203       0.18573366      -3.09500767       0.00258379       0.01218871       0.02018812
S        9.46157648       0.11889728       4.58142473        3       0.47851920       0.84315202      -0.45330723       0.00276419       0.00114389      -0.00846285
S        9.51259015       1.37571628       1.58148308        4      -0.91904155       1.27633869       1.36579054      -0.02387288       0.01342596      -0.00207965
Cl       5.76023733      -0.09418252       2.28058717        5      -0.52244369       2.55276004       0.31283707       0.00186000       0.01526382      -0.00006286
Cl       2.38353512      -2.18031850       0.74906430        6       0.21864871      -0.40156284      -1.64606475       0.00761015      -0.01012778       0.00277520
Nd      11.42516952       6.29736089       8.78432161        7       1.96451077      -3.96735613       0.91316002       0.00387011       0.00084212       0.00103062
S       13.77975354       6.34226549      10.23493659        8      -1.28115329       0.62282700      -2.59988797       0.00306963       0.00107148       0.00160741
S       10.37301577       8.28978691      10.66645177        9      -1.03926037      -1.03385652      -0.53236503       0.00269949       0.00244427       0.00135064
S       10.26372485       4.38470114      10.31299829       10      -0.97720701      -0.43602427      -1.20718961       0.00362546       0.00244895       0.00136755
S       12.66129599       4.14357641       7.36981257       11       0.31128374       0.56152201      -2.34411193       0.00165007       0.00353449      -0.00127018
Cl       9.21361876       2.54374417       7.44626534       12      -0.85018187       0.36970324       1.07243223       0.00145370       0.00379312       0.00595522
S        6.03729792       0.52074138       6.58292517       13      -1.32040679      -0.08409357      -0.83380673       0.00066150       0.00241433       0.00180788
Nd      14.48599142       8.48325120      15.02847364       14       0.32277530      -0.75867559       2.85268145       0.00076550       0.00027917      -0.00026270
S       13.61309335      10.54233125      16.77653663       15       1.27483354       1.05309676       1.10814333      -0.00232332      -0.00114257      -0.00166045
S       10.42820203       8.24176994      15.59457609       16      -0.75895333      -0.88137476       1.31664481       0.00100161      -0.00053229      -0.00084415
O       13.92888934       6.62560250      16.12045042       17       0.69146044       0.11491760       0.96542163       0.00253003      -0.00001612       0.00237336
O       13.19614480       8.39503904      13.13974903       18      -0.70204679       0.70355925      -0.15500996       0.00015169       0.00141087       0.00041219
Cl       8.51416765       5.78017122      13.32665751       19       0.55638361       1.11530549      -0.60273460       0.00221984       0.00185312      -0.00003458
S        5.09763780       5.02184848      13.72017408       20      -1.66597308      -0.12301478       1.24365445       0.00340115      -0.00315752       0.00086480
P       18.36777928      10.64608039      21.03907684       21       0.74924055       1.01409656      -0.64313029      -0.00165027      -0.00292416       0.00065487
S       20.37758218      11.14523302      20.87455498       22       2.68980582       1.18758304      -1.73021716      -0.00169990      -0.00348055       0.00154054
S       17.34050728      12.01536668      22.16987918       23      -1.09305490      -0.34832266      -0.00892647      -0.00135798      -0.00131622       0.00175994
S       18.35042346       8.80264678      21.97469539       24      -0.62000157      -1.75180375      -0.60134505      -0.00391878      -0.00173144       0.00354692
S       17.48279038      10.44294505      19.20380717       25       0.14493052      -1.48572325       1.30341228      -0.00063589      -0.00155718       0.00162308
Cl      15.12739677       8.01112373      19.13754125       26      -0.55373384       0.87275256      -0.27273696      -0.00328199      -0.00042652       0.00292703
Cl      11.76888279       7.14673429      18.75055877       27      -0.91049434       1.29920154      -1.24853525      -0.00348460      -0.00292687       0.00064723
P       23.13737691       9.79440728      26.60913212       28       0.78061482      -0.45417746       1.67442609      -0.03806949       0.01358378       0.02172098
S       24.82558535      10.79887521      27.21266896       29      -1.54592730       1.10564171       0.02772413       0.01945164      -0.03798359      -0.02550406
O       21.88718436      10.58125437      27.16461561       30       1.59714075      -0.46666760       1.13635584       0.03742738      -0.01412496      -0.00956507
S       23.25123282       7.90505873      27.42933743       31      -2.28168384       0.22261559       0.39460502      -0.01792235      -0.00845044       0.00715843
S       23.09610467       9.53848113      24.59627567       32       0.17947519      -1.31208125       2.61986435      -0.00902518      -0.00340809      -0.01414549
Cl      19.72729763       7.85259639      25.37469410       33      -0.84956197      -0.53055676       1.86275889       0.00596447      -0.00113459       0.00367890
Cl      16.65301161       5.57231111      24.47733662       34       1.34067525      -1.23375814      -1.17386930       0.00405660       0.00981463      -0.00119414
Li       0.46408009      -0.84059307       0.82717837       35       0.33182167       0.64752555      -0.26965908       0.00478151      -0.01110355       0.01349215
Li       4.18250310       2.35137627      -2.09852492       36       0.79020505       0.67054428      -0.62992328      -0.00146042       0.00501956       0.00593248
Li      10.44670945      -0.94633657       2.60188498       37      -0.18072435       0.42410260       0.20237468       0.01368075      -0.00856207      -0.00261886
Li       7.22682679       2.56497352       6.28825847       38       0.77084309       0.43469208      -0.39270112       0.00126961      -0.00020795       0.01054033
Li       4.88364229       1.42900840       0.70306916       39       0.50678264       0.74908676      -0.49725667      -0.02419831       0.00557209       0.00850545
Li       7.83330593       2.71575556       0.55659715       40      -0.18068495      -0.63160067      -0.15658042      -0.01944044      -0.02073857      -0.03953937
Li      11.34614503       2.32863534       6.42427308       41       0.51588132       0.42778914       0.74451894      -0.00189325       0.00144875       0.00037895
Li      11.71539332       2.64764128       9.30840467       42      -0.52251770      -0.66929091       0.58115317       0.00356988       0.00192669      -0.00015007
Li      14.68808339       4.17828725       9.30556610       43       0.07090079      -0.27911125       0.68665938       0.00205963       0.00202277      -0.00082673
Li       9.38885264       7.22161761       4.17997148       44       0.13914798       0.47401772      -0.84133410       0.00149897       0.01119875       0.00467421
Li       5.59462734       0.35442969      11.12129066       45      -0.49737956       0.10735651      -0.45500950       0.00262715       0.00211826       0.00047237
Li       4.42642100       8.17710813      13.37946523       46       1.10078559      -0.48526903      -0.56749846      -0.00191987       0.01015630      -0.00364859
Li      11.02216879       4.96995031       5.62714207       47      -1.08244538       0.35292435      -0.17844844       0.00555560       0.00620836      -0.00176183
Li       7.12879628       4.95456976      15.18137424       48       1.10835429      -0.17854608      -0.11255859       0.00479766       0.00086112       0.00191965
Li       5.68368876       4.34936100      11.42855482       49       0.57567958      -0.74106185      -0.52356188       0.00231215       0.00098749      -0.00028620
Li      13.39664243       6.59424495      12.67671092       50       0.31359519      -0.21866885      -0.10559119      -0.00121645       0.00093485       0.00148049
Li       9.65513632       6.82516679      17.41875605       51       0.63755741       0.17741036       0.36174914      -0.00527741      -0.00132061      -0.00461212
Li       6.65849707      10.16091222      12.65539233       52       0.50299854      -0.46924814       0.39359767       0.00250105       0.00111769       0.00083010
Li      12.79957861       8.37489526      11.18131853       53      -0.37069384       0.03033148      -0.66011986       0.00362319       0.00135489       0.00004454
Li       7.44318134       5.45324308       6.38527154       54      -0.88787357       0.19927362      -0.22347985       0.00697344      -0.00836953      -0.01178807
Li      10.10839791       5.90759735      14.85542384       55       0.32092772       0.82101944      -0.55148279       0.00326533       0.00019147      -0.00210162
Li      11.77077032       9.20225916      17.46829659       56      -0.28553023      -1.11246741      -0.58233719      -0.00104678      -0.00112575       0.00107398
Li      17.34984574      12.47448270      17.92743484       57      -0.55274783      -0.80307808      -0.27439434      -0.00234294      -0.00079218       0.00226605
Li      16.99158817       7.55016218      20.43601632       58      -0.57725346       0.44732372       1.05461632      -0.00267453      -0.00246451       0.00075155
Li      13.24211454       7.76700916      20.63433528       59       0.23382404       0.76677128      -0.14390672      -0.00335729      -0.00235772       0.00011893
Li      12.11451181       6.37057277      15.94468259       60       0.50982749       0.04698050      -0.00352173       0.00285605       0.00025972      -0.00282811
Li      14.80094331      10.43226395      18.85971005       61       0.34862433      -0.49197786      -1.03719528      -0.00392832      -0.00141539      -0.00094724
Li      18.61085061       9.67615468      24.22934143       62       0.33796230       0.13618664       0.43077399       0.00420154       0.00517973       0.00656719
Li      22.03141159       7.26311125      25.00259161       63      -0.61343096       0.08174414      -0.36996290       0.00317626       0.01121425      -0.01816144
Li      21.91300477      11.13954168      22.95310671       64       0.13184409       0.08427424      -0.39683398      -0.00385654       0.00397987      -0.00179525
Li      16.69931403       3.50341683      27.03231737       65      -0.06049620       0.33275522       0.14260894       0.00953463      -0.01435401       0.01677522
