54
Lattice="9.7977 0.0 0.0 0.0 9.7977 0.0 0.0 0.0 9.7977" Properties=species:S:1:pos:R:3:spacegroup_kinds:I:1:momenta:R:3:forces:R:3 spacegroup="P 1" unit_cell=conventional occupancy="_JSON {\"0\": {\"Nd\": 1.0}, \"1\": {\"P\": 1.0}, \"2\": {\"Nd\": 1.0}, \"3\": {\"P\": 1.0}, \"4\": {\"S\": 1.0}, \"5\": {\"S\": 1.0}, \"6\": {\"S\": 1.0}, \"7\": {\"S\": 1.0}, \"8\": {\"O\": 1.0}, \"9\": {\"S\": 1.0}, \"10\": {\"S\": 1.0}, \"11\": {\"S\": 1.0}, \"12\": {\"S\": 1.0}, \"13\": {\"S\": 1.0}, \"14\": {\"S\": 1.0}, \"15\": {\"S\": 1.0}, \"16\": {\"S\": 1.0}, \"17\": {\"S\": 1.0}, \"18\": {\"O\": 1.0}, \"19\": {\"O\": 1.0}, \"20\": {\"Cl\": 1.0}, \"21\": {\"Cl\": 1.0}, \"22\": {\"Cl\": 1.0}, \"23\": {\"Cl\": 1.0}, \"24\": {\"S\": 1.0}, \"25\": {\"Cl\": 1.0}, \"26\": {\"S\": 1.0}, \"27\": {\"Cl\": 1.0}, \"28\": {\"Li\": 1.0}, \"29\": {\"Li\": 1.0}, \"30\": {\"Li\": 1.0}, \"31\": {\"Li\": 1.0}, \"32\": {\"Li\": 1.0}, \"33\": {\"Li\": 1.0}, \"34\": {\"Li\": 1.0}, \"35\": {\"Li\": 1.0}, \"36\": {\"Li\": 1.0}, \"37\": {\"Li\": 1.0}, \"38\": {\"Li\": 1.0}, \"39\": {\"Li\": 1.0}, \"40\": {\"Li\": 1.0}, \"41\": {\"Li\": 1.0}, \"42\": {\"Li\": 1.0}, \"43\": {\"Li\": 1.0}, \"44\": {\"Li\": 1.0}, \"45\": {\"Li\": 1.0}, \"46\": {\"Li\": 1.0}, \"47\": {\"Li\": 1.0}, \"48\": {\"Li\": 1.0}, \"49\": {\"Li\": 1.0}, \"50\": {\"Li\": 1.0}, \"51\": {\"Li\": 1.0}, \"52\": {\"Li\": 1.0}, \"53\": {\"Li\": 1.0}}" charge=0 spin=0 energy=-236.98380095852386 free_energy=-236.98380095852386 stress="-0.007809640239522801 -0.0008255916098081092 -0.0015024004261482283 -0.0008255916098081092 -0.008015387702724345 -0.0028551990050356777 -0.0015024004261482283 -0.0028551990050356777 -0.00696272857591947" pbc="T T T"
Nd       5.77936092       4.51886489       5.42216609        0       2.08068051      -0.81229269      -5.84497070      -0.00598902      -0.00867886       0.00675722
P        6.97707146      -0.68321710       0.63200543        1      -1.34855872      -1.77336204      -0.57584461       0.00625439      -0.00821356       0.00321278
Nd       0.06373321       7.45615131      -2.29330528        2      -0.18765583       3.20154820       4.73542142      -0.01245374      -0.00292817      -0.00773155
P        0.06657208      -0.26951414       4.89020338        3       2.30680700       1.74964531      -2.05033297       0.01505352       0.00651521      -0.02199377
S        7.08065937       6.37705973       7.08833947        4      -1.48627616       0.67384654       2.89024558      -0.00362065      -0.00874896       0.00079745
S        7.02414220       2.72034028       3.89024467        5      -1.49595934       1.39264069       0.67752397       0.00807269       0.00614221       0.01202178
S        4.03848776       5.74305847       3.67579626        6      -0.08357814       0.48528087       2.50203701      -0.01050046       0.00975348      -0.01127183
S        3.65312721       3.19942058       6.39432079        7       0.03459013      -0.74594853       1.17451167      -0.01902077       0.01168638      -0.00060902
O        8.13814059      -0.97743998       1.63884121        8       1.44071167      -2.42813388      -0.34508081       0.01487945      -0.00419820      -0.01573696
S        7.78819111       9.29818831       8.55459560        9       1.44773194      -0.22373805       1.97896828      -0.01053294       0.00485745      -0.00328103
S        6.24637973       1.14149047      10.89669259       10      -0.81117273       0.54014081      -1.17642752       0.00714198      -0.00434560       0.01293269
S        5.48117569       7.68435796       0.75230857       11       0.28933884      -0.62410431       1.42297026       0.00639886      -0.00701438       0.00458557
S        1.04895610       7.34810833       0.28471739       12       2.78085251      -0.45793151      -1.07350192      -0.00458718      -0.00788471      -0.00993448
S        3.80153102       4.28538569      10.05407449       13       0.01537118       1.62214060      -0.76923831      -0.00704559      -0.00416799      -0.00141088
S       10.33928225       4.78827304       7.00119051       14      -1.20276091      -1.19292179      -2.12703536      -0.00109593       0.01729033      -0.00991666
S       10.66042444       4.44502075       2.98668398       15      -1.38681345      -0.71391674      -0.83122385      -0.00506622       0.00417681      -0.00855369
S        1.19540806       0.29936306       6.50420280       16       0.92622997      -0.71581735      -0.53546936       0.00714190      -0.00794891      -0.00046955
S        0.82299251       7.64840788       4.43353124       17      -0.21568461       1.89176889       0.00318243       0.00538980      -0.00540626      -0.01908102
O        9.83803669       0.65193805       3.67248166       18      -0.50060097      -0.81026791       0.06034503      -0.01216049      -0.00268850       0.03027969
O        8.42701691       9.30538076       5.43688930       19      -0.28814008       0.08476940       0.44675336      -0.00039779      -0.01893333       0.02225772
Cl       3.11584506       1.43368628       2.71677645       20      -1.82147272       0.20692023      -0.39019033       0.00412250       0.00933537       0.00697047
Cl       3.82849805      10.27297723       8.54634014       21      -0.60775625      -0.65467175      -0.49461746       0.00920031      -0.00806270       0.00033010
Cl       7.01846731       2.64644969       7.41838702       22      -0.86590265      -0.46959970       0.77156514      -0.01903122       0.00536591       0.00683094
Cl       7.48390209       6.25040052       3.55355638       23      -0.58950750      -1.09659751      -0.34007068      -0.01154219       0.00597179      -0.00592995
S        0.45624421       2.01831766       0.23099106       24       1.38094027       0.39966781       0.14676967       0.01296110      -0.00608454      -0.01273237
Cl       3.33491254       7.06839903       7.33932476       25      -2.01284091      -0.94155721      -2.17892504       0.02733180      -0.01439026      -0.00254062
S        5.19857962      -0.59802915       5.01067980       26       2.67389089      -1.13343975       0.63082474       0.00828203       0.00487485       0.01082028
Cl       7.59001574       4.64059755       0.44481409       27      -1.02618014      -2.43808350       1.22685229      -0.01644878      -0.00845039      -0.00322960
Li       3.20738008      -1.56710882      -0.32344611       28       0.30728050      -0.64149961      -0.12136778       0.00486824      -0.02198914      -0.01358091
Li       2.83302042       1.91616396       0.41807200       29      -0.42977309       1.19864104       0.88561982       0.00765403      -0.01757095       0.00637002
Li       0.94292471      12.26046314       7.66335264       30       0.14300248       0.34782236      -0.62706558       0.04802499       0.00826890      -0.00879346
Li      10.77372772       4.34851106       0.52383888       31       0.66531223       0.28453962      -0.71962608       0.03366785      -0.00450603       0.00317356
Li       8.46646087       3.88195561       2.44750052       32       0.00259607       0.20623251      -1.18521044      -0.01803490       0.01352804      -0.00710294
Li       7.99537397       1.97623607       9.45932188       33      -0.64089865       0.54128922      -0.00586405       0.00198694       0.00050765      -0.00107777
Li       9.23136388       7.28178096       2.15398702       34      -0.30689374      -0.11824432       0.70847135      -0.00970099      -0.01526509      -0.00111816
Li      -1.55135849      14.33007517       7.97232359       35       0.27224181       0.77829823       0.37428731       0.00690396      -0.00237572      -0.00090843
Li       0.89668691       2.02624910       2.71506169       36       0.16464324       0.57155965      -0.39812199      -0.01013408      -0.00717814      -0.01973438
Li      12.61787463       4.83594302       7.92862658       37      -0.48820855      -0.01488521      -0.99402529      -0.02015159       0.00464928       0.00759041
Li       7.07777597       0.92521629       5.63866042       38      -0.73086239      -0.16041702      -0.28932433       0.02842397       0.01007255      -0.00852002
Li      12.13733230       6.16640920      11.79153973       39       0.14210113      -0.40125827      -0.79990180      -0.03204701       0.01870882       0.02603251
Li      -0.39465380       5.34500939       4.78791373       40       0.59226669      -0.28779702       0.25803881      -0.00010518       0.00598508      -0.00510261
Li       9.78718576      -0.29274196       0.54541147       41      -0.16307304      -0.73151703      -0.25666314      -0.01727457      -0.00864330      -0.00212517
Li       8.11471197       0.73877671       2.78221791       42      -0.44136357      -0.14455819       0.29095759      -0.00148891      -0.00872909      -0.00382405
Li       5.73375776       5.75552209      -0.71183305       43      -1.11723877       0.76108523      -0.09611142      -0.01468514      -0.01265469      -0.00499992
Li       3.13718887       3.75171122       2.54297507       44       0.93842882       1.12143000       0.01892764       0.00123543       0.00644374      -0.00202366
Li       7.20077401      -1.87306077       5.23178602       45      -0.27500536       0.00987386      -0.22578039      -0.00430390      -0.01724491       0.01666446
Li       5.48063497      -1.41404127       7.34592392       46       0.60222124       0.65207733      -0.11657312       0.01459288       0.02489289       0.00655324
Li       4.81952046      12.44615383       8.45831096       47      -0.12487418      -0.40844751       1.02127209      -0.01352084       0.00875446      -0.00150267
Li       3.56793964      10.64849233       6.08548293       48       0.68563824       1.06674304       0.98064720       0.01312258       0.01190189       0.00680248
Li       5.38947403       7.62135724       3.17228157       49       0.59289709       0.33274300       0.03276087       0.00869070       0.01492785       0.00761643
Li       5.58424320       4.86091420       1.88354043       50       0.28821236      -0.00962213      -0.51916523      -0.01659554       0.01824746      -0.00571056
Li       2.20191130       4.50128374       5.05967126       51      -0.16389277      -0.48665985      -0.29099653      -0.01206156       0.01444703      -0.00211272
Li       3.29148045       7.68556512       5.03255570       52       0.17410473       0.05848232       0.92682778       0.00489790       0.00498886       0.00762374
Li       5.26990304       1.16416686      13.17143484       53      -0.13514742       0.45810446       1.21294645       0.00329718      -0.00799191       0.01643682
