54
Lattice="9.7977 0.0 0.0 0.0 9.7977 0.0 0.0 0.0 9.7977" Properties=species:S:1:pos:R:3:spacegroup_kinds:I:1:momenta:R:3:forces:R:3 spacegroup="P 1" unit_cell=conventional occupancy="_JSON {\"0\": {\"Nd\": 1.0}, \"1\": {\"P\": 1.0}, \"2\": {\"Nd\": 1.0}, \"3\": {\"P\": 1.0}, \"4\": {\"S\": 1.0}, \"5\": {\"S\": 1.0}, \"6\": {\"S\": 1.0}, \"7\": {\"S\": 1.0}, \"8\": {\"S\": 1.0}, \"9\": {\"S\": 1.0}, \"10\": {\"S\": 1.0}, \"11\": {\"S\": 1.0}, \"12\": {\"O\": 1.0}, \"13\": {\"O\": 1.0}, \"14\": {\"S\": 1.0}, \"15\": {\"O\": 1.0}, \"16\": {\"S\": 1.0}, \"17\": {\"S\": 1.0}, \"18\": {\"S\": 1.0}, \"19\": {\"S\": 1.0}, \"20\": {\"Cl\": 1.0}, \"21\": {\"Cl\": 1.0}, \"22\": {\"Cl\": 1.0}, \"23\": {\"Cl\": 1.0}, \"24\": {\"S\": 1.0}, \"25\": {\"Cl\": 1.0}, \"26\": {\"S\": 1.0}, \"27\": {\"Cl\": 1.0}, \"28\": {\"Li\": 1.0}, \"29\": {\"Li\": 1.0}, \"30\": {\"Li\": 1.0}, \"31\": {\"Li\": 1.0}, \"32\": {\"Li\": 1.0}, \"33\": {\"Li\": 1.0}, \"34\": {\"Li\": 1.0}, \"35\": {\"Li\": 1.0}, \"36\": {\"Li\": 1.0}, \"37\": {\"Li\": 1.0}, \"38\": {\"Li\": 1.0}, \"39\": {\"Li\": 1.0}, \"40\": {\"Li\": 1.0}, \"41\": {\"Li\": 1.0}, \"42\": {\"Li\": 1.0}, \"43\": {\"Li\": 1.0}, \"44\": {\"Li\": 1.0}, \"45\": {\"Li\": 1.0}, \"46\": {\"Li\": 1.0}, \"47\": {\"Li\": 1.0}, \"48\": {\"Li\": 1.0}, \"49\": {\"Li\": 1.0}, \"50\": {\"Li\": 1.0}, \"51\": {\"Li\": 1.0}, \"52\": {\"Li\": 1.0}, \"53\": {\"Li\": 1.0}}" charge=0 spin=0 energy=-234.18500021756736 free_energy=-234.18500021756736 stress="-0.005005452978333991 0.00269149536379153 0.002039283611894299 0.00269149536379153 -0.011109337484999563 0.0021251163906991642 0.002039283611894299 0.0021251163906991642 -0.0039084622331012845" pbc="T T T"
Nd       4.01600366       4.33061865       3.19591239        0       1.21826549      -1.22382993      -4.70262808      -0.01599516      -0.00480446       0.00069190
P        4.24625806      -0.45616415      -2.52323640        1       1.57904518      -1.45899500      -0.42214427       0.00793049      -0.01532602       0.00528945
Nd       0.32619066       5.24972854       0.01584428        2       0.47905347       1.61299747       0.51917595      -0.00265918       0.00050642      -0.00187470
P       -0.53937473       0.31148526       4.29405575        3       0.35431342      -0.99718098       0.09803948       0.00467551      -0.00428823       0.00665369
S        5.91133004       5.81325899       4.60070666        4       1.91709696       1.45162466       0.44902307       0.00213404      -0.00455874      -0.01336408
S        5.59837924       2.68967772       1.79582428        5       1.41583096       1.03570179       0.68831674      -0.01800036       0.00541729      -0.00357483
S        2.96638111       5.71799597       1.15028401        6      -0.35013521      -1.60944162       2.99320871       0.00147678      -0.00191753      -0.00014988
S        2.60601268       3.16085616       5.25566260        7       0.69303657      -2.49760025      -0.39168785      -0.00863317       0.02010604       0.00929789
S        4.05426750       1.31326614      -1.47711682        8       1.12383886       1.30599913       0.83849358       0.00046335      -0.00865155      -0.01335446
S        4.33548712       9.71957135       5.27919130        9       0.91819861       0.17608925       1.19694186      -0.00579539      -0.00488263       0.00964857
S        2.77269815      -1.78213801       7.81308944       10      -0.80177587       1.69309650      -0.37241747       0.00585908      -0.01548645       0.00255446
S        6.00668987       8.40562608      -2.00574574       11      -2.25664676      -0.57056327      -1.93926863       0.01455918      -0.00697854      -0.00142474
O        0.52570004       7.48192210       0.57734707       12       0.04194314       1.90905032      -0.60261065      -0.00081837      -0.00283702       0.00344644
O        1.29997248       3.72865832       8.36375406       13       0.19580164      -0.15333327       0.73239624      -0.00002822      -0.00747227      -0.00124648
S        9.09682231       6.18664503       7.17359426       14      -1.50847456       1.04734287      -0.20170458      -0.00538275      -0.00161131       0.00129774
O        8.40052247       3.70685444       0.10957577       15      -0.55616325       0.53200080       0.50078624      -0.00117962       0.00329587       0.00163266
S        0.12760058       0.28420924       6.26134523       16      -2.24123531      -0.62737287       0.64238458      -0.01674272      -0.00055981       0.01013704
S        1.03025781       9.47128229       3.16666399       17      -0.37662238       0.62106540       0.46486377      -0.01498611       0.01201016       0.01650108
S        8.61354858       2.16719188       3.75066492       18       0.53659430      -0.70586052      -1.79561071       0.00393918       0.00834983      -0.01000656
S        7.62395225       8.88167691       4.09495905       19      -0.58723995       1.82446600      -0.49602036      -0.00158693      -0.00783819       0.00308988
Cl       1.81701941       2.61088867       1.60394566       20       0.16024096       0.22445482       1.27366899      -0.00809288       0.00902849      -0.00097511
Cl       2.45070106       6.56341785       4.65237961       21      -0.15244552      -1.82523927      -0.83591248      -0.00568626       0.00256628      -0.00404621
Cl       7.24923415       2.77878313       6.97023570       22       0.33107830      -0.84686086      -1.13222766      -0.00730225      -0.01446063       0.01117592
Cl       7.06529512       6.52545831       0.73723243       23      -1.05791615      -1.27052207       0.20348029       0.00707705       0.00276253      -0.01172760
S       -1.31505508       0.46582579      -0.19938860       24       1.34238428       0.06487693      -2.31965121      -0.00437613       0.00555910      -0.00643561
Cl      -0.47599361       5.30765953       3.08346500       25       0.46015922       0.17760440       3.14291111       0.00726205      -0.01737976      -0.00554903
S        4.47975360      -0.89235508       1.68305322       26      -0.24498628       0.86563453      -0.17637626       0.01286322      -0.00373910      -0.01552229
Cl       4.84911674       4.83340855      -1.69322030       27       0.18856834      -2.63088675       1.82112311       0.01520627      -0.00033820      -0.00252743
Li      -3.39721190      -0.63359685       0.29853481       28      -0.15359909       0.55591592       0.10787819       0.02009020      -0.02667149      -0.00475191
Li       1.25446247       4.66075811       6.74705172       29      -0.34340314       0.07927887      -0.44044575      -0.00674250      -0.00684926      -0.00327706
Li       2.97283326       3.90014601       9.32598354       30       0.38748628       0.19029007      -0.23564493      -0.00812694       0.00791274       0.00027548
Li       7.31932009       4.81393796      -1.23169244       31      -0.02440012      -0.52735924       0.72851617       0.01165023      -0.00157435      -0.01412830
Li       9.55078597      -1.61506569       8.81106578       32      -0.89479386       1.04085825      -0.76278749       0.00462754       0.00040373       0.00289643
Li       3.82404695       1.22895891      10.84247823       33       0.25505244      -0.13525160       0.61991012       0.00476536      -0.00560060       0.00999499
Li      12.14173176       8.05077941       0.45438582       34      -0.66971698      -0.21768096      -1.03438258       0.00389255      -0.02356029       0.00107862
Li       0.94790036       7.72210857       6.08934221       35       0.62452205      -0.61567924      -0.70870314       0.00243926       0.00639739       0.00240722
Li      -1.90879966       4.54939596       5.43396082       36       1.38372011      -0.75631556      -0.85431726       0.00575518      -0.00120466      -0.00765601
Li       7.29071061       7.32305189       5.99268781       37      -0.36797425       0.21074535       0.67318380      -0.01076010      -0.00184863      -0.00781226
Li       9.37340148       2.72899722      -1.25813824       38       0.51435688       0.34806127       1.17419644       0.00908125       0.00172012       0.00950309
Li       9.17591792       2.19738806      11.07268088       39      -0.76026801       0.41667770       0.98884862       0.00167755       0.00347482      -0.00145976
Li      -0.42634689       8.81082982       1.38044046       40       0.80616430      -0.43168131      -0.60747130       0.02329194       0.02452741      -0.00020225
Li       4.78172752       2.93767401       6.60691797       41       0.14597949       0.39403804      -0.42451545      -0.00898296      -0.00570023       0.00602384
Li       0.85345459       3.32959610       3.65323702       42      -0.29634815       0.19654180       0.17806012       0.00382331       0.00412747       0.00875332
Li       7.69872663      10.24068120       7.37043121       43      -0.44393132       0.53539611       0.53738726      -0.01415062       0.01070724      -0.00629044
Li       4.34934733       7.77193869       3.74508843       44      -0.28881653      -0.37588671       0.53962193      -0.00404428       0.02174407       0.00699208
Li       4.77707361      -2.87724175       0.19106681       45      -0.58400789      -0.03718859      -0.09378441      -0.00031652      -0.00606207      -0.01954837
Li       2.24691644       0.86226510       4.84772186       46       0.02365094       0.57302661      -0.52511395       0.01361949       0.02536999      -0.00151957
Li       4.31269507       6.38358431       6.42045867       47      -0.49096920      -0.47410863       0.46116260      -0.00584157      -0.00262878       0.00245187
Li       5.93752432      10.40527207       2.97474482       48      -1.37636588       0.04600980       0.42254037      -0.00030284       0.00125114       0.00782008
Li       7.41070269       6.74794210       3.02571614       49       0.90265044      -0.36486399      -0.62081870       0.00022617       0.00017129      -0.00426148
Li       1.22530965       6.98986760       2.42187453       50      -0.30553917      -0.01552201      -0.33296694      -0.00363102       0.00543083      -0.00366886
Li       1.96394624       2.28253451       7.39389704       51      -0.27269579      -0.18661520       0.54728357       0.00154537      -0.00241278       0.00668336
Li      -2.41894538       4.26503167       1.56977372       52       0.14447803       0.81241803      -0.21744218      -0.00251333       0.01541899       0.00095241
Li       7.00286200       2.36285815       9.63732614       53      -0.73704104       0.61457843      -0.29674553      -0.00725318       0.00898379       0.01910543
