--------------------------------------------------------------------------
WARNING: Open MPI tried to bind a process but failed.  This is a
warning only; your job will continue, though performance may
be degraded.

  Local host:        3f2c2428df7f
  Application name:  /home/ubuntu/apps/qe-7.4.1-gpu/bin/pw.x
  Error message:     failed to bind memory
  Location:          ../../../../../orte/mca/rtc/hwloc/rtc_hwloc.c:447

--------------------------------------------------------------------------

     Program PWSCF v.7.4.1 starts on 13Sep2026 at  3: 0:36 

     This program is part of the open-source Quantum ESPRESSO suite
     for quantum simulation of materials; please cite
         "P. Giannozzi et al., J. Phys.:Condens. Matter 21 395502 (2009);
         "P. Giannozzi et al., J. Phys.:Condens. Matter 29 465901 (2017);
         "P. Giannozzi et al., J. Chem. Phys. 152 154105 (2020);
          URL http://www.quantum-espresso.org", 
     in publications or presentations arising from this work. More details at
     http://www.quantum-espresso.org/quote

     Parallel version (MPI & OpenMP), running on      16 processor cores
     Number of MPI processes:                 1
     Threads/MPI process:                    16

     MPI processes distributed on     1 nodes
     69708 MiB available memory on the printing compute node when the environment starts
 
     Reading input from scf.in

     Current dimensions of program PWSCF are:
     Max number of different atomic species (ntypx) = 10
     Max number of k-points (npk) =  40000
     Max angular momentum in pseudopotentials (lmaxx) =  4
     Found identity + ( -0.0000  0.5000  0.5000) symmetry
     This is a supercell, fractional translations are disabled
 
     Subspace diagonalization in iterative solution of the eigenvalue problem:
     a serial algorithm will be used

 
     G-vector sticks info
     --------------------
     sticks:   dense  smooth     PW     G-vecs:    dense   smooth      PW
     Sum       13801    6885   1861              1218509   430465   60245
 
     Using Slab Decomposition
 


     bravais-lattice index     =            0
     lattice parameter (alat)  =      19.0014  a.u.
     unit-cell volume          =    6860.4913 (a.u.)^3
     number of atoms/cell      =           52
     number of atomic types    =            4
     number of electrons       =       240.00
     number of Kohn-Sham states=          144
     kinetic-energy cutoff     =      60.0000  Ry
     charge density cutoff     =     480.0000  Ry
     scf convergence threshold =      1.0E-09
     mixing beta               =       0.3000
     number of iterations used =            8  plain     mixing
     Exchange-correlation=  SLA  PW   PBX  PBC
                           (   1   4   3   4   0   0   0)

     GPU acceleration is ACTIVE.  1 visible GPUs per MPI rank


     celldm(1)=  19.001377  celldm(2)=   0.000000  celldm(3)=   0.000000
     celldm(4)=   0.000000  celldm(5)=   0.000000  celldm(6)=   0.000000

     crystal axes: (cart. coord. in units of alat)
               a(1) = (   1.000000   0.000000   0.000000 )  
               a(2) = (   0.000000   1.000000   0.000000 )  
               a(3) = (   0.000000   0.000000   1.000000 )  

     reciprocal axes: (cart. coord. in units 2 pi/alat)
               b(1) = (  1.000000  0.000000  0.000000 )  
               b(2) = (  0.000000  1.000000  0.000000 )  
               b(3) = (  0.000000  0.000000  1.000000 )  


     PseudoPot. # 1 for Cl read from file:
     /home/ubuntu/work/pseudo/cl_pbe_v1_4_uspp_F.UPF
     MD5 check sum: fc6f6913ecf08c9257cb748ef0700058
     Pseudo is Ultrasoft + core correction, Zval =  7.0
     Generated by new atomic code, or converted to UPF format
     Using radial grid of  909 points,  6 beta functions with: 
                l(1) =   0
                l(2) =   0
                l(3) =   1
                l(4) =   1
                l(5) =   2
                l(6) =   2
     Q(r) pseudized with  8 coefficients,  rinner =    1.300   1.300   1.300
                                                       1.300   1.300

     PseudoPot. # 2 for Li read from file:
     /home/ubuntu/work/pseudo/li_pbe_v1_4_uspp_F.UPF
     MD5 check sum: e912e257baa3777c20ea3d68f190483c
     Pseudo is Ultrasoft, Zval =  3.0
     Generated by new atomic code, or converted to UPF format
     Using radial grid of  751 points,  5 beta functions with: 
                l(1) =   0
                l(2) =   0
                l(3) =   0
                l(4) =   1
                l(5) =   1
     Q(r) pseudized with 10 coefficients,  rinner =    1.150   1.150   1.150


     PseudoPot. # 3 for P  read from file:
     /home/ubuntu/work/pseudo/P_pbe-n-rrkjus_psl_1_0_0.UPF
     MD5 check sum: 8b930f418f0a4573dca56cd030ffe088
     Pseudo is Ultrasoft + core correction, Zval =  5.0
     Generated using "atomic" code by A. Dal Corso  v.5.1
     Using radial grid of 1147 points,  6 beta functions with: 
                l(1) =   0
                l(2) =   0
                l(3) =   1
                l(4) =   1
                l(5) =   2
                l(6) =   2
     Q(r) pseudized with 0 coefficients 


     PseudoPot. # 4 for S  read from file:
     /home/ubuntu/work/pseudo/s_pbe_v1_4_uspp_F.UPF
     MD5 check sum: 88d86576ff6df21479756cfb9bdac1df
     Pseudo is Ultrasoft + core correction, Zval =  6.0
     Generated by new atomic code, or converted to UPF format
     Using radial grid of  907 points,  6 beta functions with: 
                l(1) =   0
                l(2) =   0
                l(3) =   1
                l(4) =   1
                l(5) =   2
                l(6) =   2
     Q(r) pseudized with  8 coefficients,  rinner =    1.300   1.300   1.300
                                                       1.300   1.300

     atomic species   valence    mass     pseudopotential
     Cl                7.00    35.45300     Cl( 1.00)
     Li                3.00     6.94100     Li( 1.00)
     P                 5.00    30.97400     P ( 1.00)
     S                 6.00    32.06500     S ( 1.00)

     No symmetry found



   Cartesian axes

     site n.     atom                  positions (alat units)
         1        P      tau(   1) = (   0.5074500   0.5000008   0.5000001  )
         2        P      tau(   2) = (   0.0074500   0.9999998   0.4999996  )
         3        P      tau(   3) = (   0.0074500   0.4999996   0.9999996  )
         4        P      tau(   4) = (   0.5074500   0.0000006   1.0000000  )
         5        S      tau(   5) = (   0.6096859   0.6235600   0.6236247  )
         6        S      tau(   6) = (   0.1096832   0.1235583   0.6236274  )
         7        S      tau(   7) = (   0.1096835   0.6235580   0.1236272  )
         8        S      tau(   8) = (   0.6096867   0.1235595   0.1236243  )
         9        S      tau(   9) = (   0.3851001   0.3795801   0.6204451  )
        10        S      tau(  10) = (   0.8851005   0.8795760   0.6204420  )
        11        S      tau(  11) = (   0.8851001   0.3795762   0.1204419  )
        12        S      tau(  12) = (   0.3851000   0.8795800   0.1204450  )
        13        S      tau(  13) = (   0.3850993   0.6204225   0.3795567  )
        14        S      tau(  14) = (   0.8850989   0.1204210   0.3795562  )
        15        S      tau(  15) = (   0.8850993   0.6204212   0.8795561  )
        16        S      tau(  16) = (   0.3850994   0.1204225   0.8795566  )
        17        S      tau(  17) = (   0.6096841   0.3764413   0.3763741  )
        18        S      tau(  18) = (   0.1096867   0.8764438   0.3763724  )
        19        S      tau(  19) = (   0.1096864   0.3764436   0.8763722  )
        20        S      tau(  20) = (   0.6096833   0.8764408   0.8763735  )
        21        Li     tau(  21) = (   0.2789780   0.4741549   0.2205363  )
        22        Li     tau(  22) = (   0.7789779   0.9741534   0.2205350  )
        23        Li     tau(  23) = (   0.7789752   0.4741542   0.7205373  )
        24        Li     tau(  24) = (   0.2789774   0.9741553   0.7205369  )
        25        Li     tau(  25) = (   0.7787599   0.7792627   0.0257616  )
        26        Li     tau(  26) = (   0.2787589   0.2792630   0.0257632  )
        27        Li     tau(  27) = (   0.2787608   0.7792643   0.5257634  )
        28        Li     tau(  28) = (   0.7787631   0.2792652   0.5257624  )
        29        Li     tau(  29) = (   0.7787677   0.2207309   0.9742344  )
        30        Li     tau(  30) = (   0.2787577   0.7207407   0.9742394  )
        31        Li     tau(  31) = (   0.2787559   0.2207420   0.4742396  )
        32        Li     tau(  32) = (   0.7787648   0.7207333   0.4742350  )
        33        Li     tau(  33) = (   0.2789844   0.5258484   0.7794688  )
        34        Li     tau(  34) = (   0.7789734   0.0258434   0.7794581  )
        35        Li     tau(  35) = (   0.7789759   0.5258441   0.2794602  )
        36        Li     tau(  36) = (   0.2789849   0.0258488   0.2794695  )
        37        Li     tau(  37) = (   0.0210855   0.3423830   0.3421700  )
        38        Li     tau(  38) = (   0.5210888   0.8423795   0.3421772  )
        39        Li     tau(  39) = (   0.5210887   0.3423754   0.8421813  )
        40        Li     tau(  40) = (   0.0210856   0.8423815   0.8421718  )
        41        Li     tau(  41) = (   0.0210892   0.6576133   0.6578286  )
        42        Li     tau(  42) = (   0.5210860   0.1576245   0.6578211  )
        43        Li     tau(  43) = (   0.5210859   0.6576206   0.1578253  )
        44        Li     tau(  44) = (   0.0210891   0.1576120   0.1578304  )
        45        Cl     tau(  45) = (   0.9292654   0.9999992   0.9999997  )
        46        Cl     tau(  46) = (   0.4292655   0.5000005   0.0000006  )
        47        Cl     tau(  47) = (   0.4292654   0.0000011   0.4999996  )
        48        Cl     tau(  48) = (   0.9292654   0.4999991   0.4999989  )
        49        S      tau(  49) = (   0.2180613   0.2500009   0.2500010  )
        50        S      tau(  50) = (   0.7180614   0.7499991   0.2499989  )
        51        S      tau(  51) = (   0.7180614   0.2499991   0.7499990  )
        52        S      tau(  52) = (   0.2180615   0.7500009   0.7500010  )

     number of k points=    36  Marzari-Vanderbilt smearing, width (Ry)=  0.0100
                       cart. coord. in units 2pi/alat
        k(    1) = (   0.0000000   0.0000000   0.0000000), wk =   0.0312500
        k(    2) = (   0.0000000   0.0000000   0.2500000), wk =   0.0625000
        k(    3) = (   0.0000000   0.0000000  -0.5000000), wk =   0.0312500
        k(    4) = (   0.0000000   0.2500000   0.0000000), wk =   0.0625000
        k(    5) = (   0.0000000   0.2500000   0.2500000), wk =   0.0625000
        k(    6) = (   0.0000000   0.2500000  -0.5000000), wk =   0.0625000
        k(    7) = (   0.0000000   0.2500000  -0.2500000), wk =   0.0625000
        k(    8) = (   0.0000000  -0.5000000   0.0000000), wk =   0.0312500
        k(    9) = (   0.0000000  -0.5000000   0.2500000), wk =   0.0625000
        k(   10) = (   0.0000000  -0.5000000  -0.5000000), wk =   0.0312500
        k(   11) = (   0.2500000   0.0000000   0.0000000), wk =   0.0625000
        k(   12) = (   0.2500000   0.0000000   0.2500000), wk =   0.0625000
        k(   13) = (   0.2500000   0.0000000  -0.5000000), wk =   0.0625000
        k(   14) = (   0.2500000   0.0000000  -0.2500000), wk =   0.0625000
        k(   15) = (   0.2500000   0.2500000   0.0000000), wk =   0.0625000
        k(   16) = (   0.2500000   0.2500000   0.2500000), wk =   0.0625000
        k(   17) = (   0.2500000   0.2500000  -0.5000000), wk =   0.0625000
        k(   18) = (   0.2500000   0.2500000  -0.2500000), wk =   0.0625000
        k(   19) = (   0.2500000  -0.5000000   0.0000000), wk =   0.0625000
        k(   20) = (   0.2500000  -0.5000000   0.2500000), wk =   0.0625000
        k(   21) = (   0.2500000  -0.5000000  -0.5000000), wk =   0.0625000
        k(   22) = (   0.2500000  -0.5000000  -0.2500000), wk =   0.0625000
        k(   23) = (   0.2500000  -0.2500000   0.0000000), wk =   0.0625000
        k(   24) = (   0.2500000  -0.2500000   0.2500000), wk =   0.0625000
        k(   25) = (   0.2500000  -0.2500000  -0.5000000), wk =   0.0625000
        k(   26) = (   0.2500000  -0.2500000  -0.2500000), wk =   0.0625000
        k(   27) = (  -0.5000000   0.0000000   0.0000000), wk =   0.0312500
        k(   28) = (  -0.5000000   0.0000000   0.2500000), wk =   0.0625000
        k(   29) = (  -0.5000000   0.0000000  -0.5000000), wk =   0.0312500
        k(   30) = (  -0.5000000   0.2500000   0.0000000), wk =   0.0625000
        k(   31) = (  -0.5000000   0.2500000   0.2500000), wk =   0.0625000
        k(   32) = (  -0.5000000   0.2500000  -0.5000000), wk =   0.0625000
        k(   33) = (  -0.5000000   0.2500000  -0.2500000), wk =   0.0625000
        k(   34) = (  -0.5000000  -0.5000000   0.0000000), wk =   0.0312500
        k(   35) = (  -0.5000000  -0.5000000   0.2500000), wk =   0.0625000
        k(   36) = (  -0.5000000  -0.5000000  -0.5000000), wk =   0.0312500

     Dense  grid:  1218509 G-vectors     FFT dimensions: ( 135, 135, 135)

     Smooth grid:   430465 G-vectors     FFT dimensions: (  96,  96,  96)

     Estimated max dynamical RAM per process >      10.28 GB

     Initial potential from superposition of free atoms

     starting charge     229.1808, renormalised to     240.0000

     negative rho (up, down):  6.262E-02 0.000E+00
     Starting wfcs are  232 randomized atomic wfcs

     total cpu time spent up to now is       14.0 secs

     Self-consistent Calculation

     iteration #  1     ecut=    60.00 Ry     beta= 0.30
     Davidson diagonalization with overlap
     ethr =  1.00E-02,  avg # of iterations =  3.9

     negative rho (up, down):  6.116E-02 0.000E+00

     total cpu time spent up to now is       32.6 secs

     total energy              =   -1022.26904206 Ry
     estimated scf accuracy    <       3.51632529 Ry

     iteration #  2     ecut=    60.00 Ry     beta= 0.30
     Davidson diagonalization with overlap
     ethr =  1.47E-03,  avg # of iterations =  3.6

     negative rho (up, down):  5.974E-02 0.000E+00

     total cpu time spent up to now is       51.4 secs

     total energy              =   -1022.83705522 Ry
     estimated scf accuracy    <       0.52821954 Ry

     iteration #  3     ecut=    60.00 Ry     beta= 0.30
     Davidson diagonalization with overlap
     ethr =  2.20E-04,  avg # of iterations = 13.6

     negative rho (up, down):  5.845E-02 0.000E+00

     total cpu time spent up to now is       78.7 secs

     total energy              =   -1022.90158647 Ry
     estimated scf accuracy    <       0.21823747 Ry

     iteration #  4     ecut=    60.00 Ry     beta= 0.30
     Davidson diagonalization with overlap
     ethr =  9.09E-05,  avg # of iterations =  2.2

     negative rho (up, down):  5.766E-02 0.000E+00

     total cpu time spent up to now is       96.6 secs

     total energy              =   -1022.91848976 Ry
     estimated scf accuracy    <       0.09887649 Ry

     iteration #  5     ecut=    60.00 Ry     beta= 0.30
     Davidson diagonalization with overlap
     ethr =  4.12E-05,  avg # of iterations =  7.1

     negative rho (up, down):  5.759E-02 0.000E+00

     total cpu time spent up to now is      116.9 secs

     total energy              =   -1022.94451424 Ry
     estimated scf accuracy    <       0.01809162 Ry

     iteration #  6     ecut=    60.00 Ry     beta= 0.30
     Davidson diagonalization with overlap
     c_bands:  1 eigenvalues not converged
     c_bands:  1 eigenvalues not converged
     c_bands:  2 eigenvalues not converged
     c_bands:  2 eigenvalues not converged
     ethr =  7.54E-06,  avg # of iterations =  9.4

     negative rho (up, down):  5.748E-02 0.000E+00

     total cpu time spent up to now is      136.6 secs

     total energy              =   -1022.94459842 Ry
     estimated scf accuracy    <       0.00381579 Ry

     iteration #  7     ecut=    60.00 Ry     beta= 0.30
     Davidson diagonalization with overlap
     ethr =  1.59E-06,  avg # of iterations =  7.6

     negative rho (up, down):  5.746E-02 0.000E+00

     total cpu time spent up to now is      159.4 secs

     total energy              =   -1022.94624809 Ry
     estimated scf accuracy    <       0.00099670 Ry

     iteration #  8     ecut=    60.00 Ry     beta= 0.30
     Davidson diagonalization with overlap
     ethr =  4.15E-07,  avg # of iterations =  3.9

     negative rho (up, down):  5.745E-02 0.000E+00

     total cpu time spent up to now is      177.9 secs

     total energy              =   -1022.94644793 Ry
     estimated scf accuracy    <       0.00017106 Ry

     iteration #  9     ecut=    60.00 Ry     beta= 0.30
     Davidson diagonalization with overlap
     ethr =  7.13E-08,  avg # of iterations =  5.3

     negative rho (up, down):  5.740E-02 0.000E+00

     total cpu time spent up to now is      199.1 secs

     total energy              =   -1022.94652485 Ry
     estimated scf accuracy    <       0.00001960 Ry

     iteration # 10     ecut=    60.00 Ry     beta= 0.30
     Davidson diagonalization with overlap
     ethr =  8.17E-09,  avg # of iterations =  5.9

     negative rho (up, down):  5.736E-02 0.000E+00

     total cpu time spent up to now is      224.0 secs

     total energy              =   -1022.94653851 Ry
     estimated scf accuracy    <       0.00001271 Ry

     iteration # 11     ecut=    60.00 Ry     beta= 0.30
     Davidson diagonalization with overlap
     ethr =  5.29E-09,  avg # of iterations =  2.2

     negative rho (up, down):  5.735E-02 0.000E+00

     total cpu time spent up to now is      241.8 secs

     total energy              =   -1022.94654195 Ry
     estimated scf accuracy    <       0.00000059 Ry

     iteration # 12     ecut=    60.00 Ry     beta= 0.30
     Davidson diagonalization with overlap
     ethr =  2.48E-10,  avg # of iterations =  5.9

     negative rho (up, down):  5.733E-02 0.000E+00

     total cpu time spent up to now is      265.7 secs

     total energy              =   -1022.94654220 Ry
     estimated scf accuracy    <       0.00000031 Ry

     iteration # 13     ecut=    60.00 Ry     beta= 0.30
     Davidson diagonalization with overlap
     ethr =  1.30E-10,  avg # of iterations =  3.6

     negative rho (up, down):  5.733E-02 0.000E+00

     total cpu time spent up to now is      301.5 secs

     total energy              =   -1022.94654231 Ry
     estimated scf accuracy    <       0.00000003 Ry

     iteration # 14     ecut=    60.00 Ry     beta= 0.30
     Davidson diagonalization with overlap
     ethr =  1.08E-11,  avg # of iterations =  5.4

     negative rho (up, down):  5.732E-02 0.000E+00

     total cpu time spent up to now is      353.9 secs

     total energy              =   -1022.94654233 Ry
     estimated scf accuracy    <          4.3E-09 Ry

     iteration # 15     ecut=    60.00 Ry     beta= 0.30
     Davidson diagonalization with overlap
     ethr =  1.79E-12,  avg # of iterations =  4.6

     negative rho (up, down):  5.732E-02 0.000E+00

     total cpu time spent up to now is      407.0 secs

     total energy              =   -1022.94654233 Ry
     estimated scf accuracy    <          1.2E-09 Ry

     iteration # 16     ecut=    60.00 Ry     beta= 0.30
     Davidson diagonalization with overlap
     ethr =  4.83E-13,  avg # of iterations =  4.5

     negative rho (up, down):  5.732E-02 0.000E+00

     total cpu time spent up to now is      457.3 secs

     End of self-consistent calculation

          k = 0.0000 0.0000 0.0000 ( 53811 PWs)   bands (ev):

   -42.6068 -42.6068 -42.6068 -42.6068 -42.5912 -42.5912 -42.5912 -42.5912
   -42.2105 -42.2105 -42.2099 -42.2099 -42.2097 -42.2097 -42.2092 -42.2092
   -42.2012 -42.2011 -42.2007 -42.2007 -42.2005 -42.2005 -42.2000 -42.2000
   -12.4859 -12.4226 -12.4226 -12.4156 -12.3041 -12.2864 -12.2864 -12.2636
    -9.7822  -9.7816  -9.6169  -9.6115  -9.6084  -9.5507  -9.5500  -9.4873
    -9.4827  -9.4345  -9.4075  -9.4073  -8.0766  -8.0689  -8.0688  -8.0671
    -5.7581  -5.2298  -5.1517  -5.1513  -2.7183  -2.7176  -2.5188  -2.2648
    -2.2355  -2.1931  -2.0296  -1.9983  -1.9975  -1.8930  -1.7960  -1.7959
    -1.3405  -1.1905  -1.1904  -1.1124  -0.8359  -0.8359  -0.8140  -0.7942
    -0.7938  -0.7821  -0.7804  -0.7076  -0.1791  -0.1784  -0.0704  -0.0034
     0.1527   0.1899   0.1901   0.2374   0.3157   0.3160   0.4133   0.4754
     0.4756   0.4791   0.5793   0.7279   0.7303   0.8862   0.9364   0.9369
     1.0213   1.0219   1.2516   1.2784   1.3954   1.4080   1.4085   1.4396
     1.4889   1.4896   1.5309   1.6198   1.6201   1.6333   1.6811   1.6816
     1.7268   1.8358   1.8559   1.8559   1.9120   1.9410   1.9519   2.1281
     4.1936   5.6378   5.8848   6.0300   6.0301   6.0426   6.0441   6.0583
     6.1390   6.3139   6.4370   6.8205   7.0956   7.1581   7.1585   7.3080
     7.3086   7.5428   7.6402   7.6408   7.6490   7.7173   7.7204   8.1439

          k = 0.0000 0.0000 0.2500 ( 53887 PWs)   bands (ev):

   -42.6068 -42.6068 -42.6068 -42.6068 -42.5912 -42.5912 -42.5912 -42.5912
   -42.2105 -42.2104 -42.2101 -42.2101 -42.2095 -42.2095 -42.2092 -42.2092
   -42.2011 -42.2011 -42.2009 -42.2009 -42.2004 -42.2004 -42.2000 -42.2000
   -12.4769 -12.4321 -12.4203 -12.4151 -12.3032 -12.2905 -12.2833 -12.2670
    -9.7676  -9.7558  -9.6733  -9.6341  -9.5640  -9.5483  -9.5432  -9.4971
    -9.4790  -9.4294  -9.4195  -9.4107  -8.0750  -8.0695  -8.0685  -8.0673
    -5.6802  -5.2551  -5.2202  -5.1650  -2.6958  -2.6262  -2.5587  -2.3023
    -2.2190  -2.1385  -2.0393  -2.0026  -1.9925  -1.8916  -1.8697  -1.8144
    -1.3203  -1.2137  -1.1894  -1.1381  -0.8374  -0.8257  -0.8189  -0.7901
    -0.7871  -0.7865  -0.7832  -0.7274  -0.1792  -0.0792  -0.0455  -0.0142
     0.1871   0.1969   0.2110   0.2382   0.3338   0.3753   0.4293   0.4306
     0.4581   0.4833   0.5205   0.6705   0.8457   0.9013   0.9319   0.9516
     1.0192   1.0436   1.1801   1.2384   1.3698   1.4016   1.4599   1.4614
     1.4992   1.5230   1.5491   1.5831   1.6261   1.6460   1.6622   1.6636
     1.6908   1.8065   1.8436   1.8462   1.8778   1.8782   1.9320   2.0494
     4.4225   5.5823   5.7424   6.0213   6.0565   6.1213   6.1560   6.1850
     6.2424   6.4363   6.6320   6.7386   6.9227   6.9642   7.0515   7.1580
     7.1874   7.4785   7.5439   7.6949   7.7094   7.7398   7.8225   7.9651

          k = 0.0000 0.0000-0.5000 ( 53830 PWs)   bands (ev):

   -42.6068 -42.6068 -42.6068 -42.6068 -42.5912 -42.5912 -42.5912 -42.5912
   -42.2103 -42.2103 -42.2103 -42.2103 -42.2094 -42.2093 -42.2093 -42.2093
   -42.2010 -42.2010 -42.2010 -42.2010 -42.2002 -42.2002 -42.2002 -42.2002
   -12.4547 -12.4547 -12.4163 -12.4163 -12.2984 -12.2984 -12.2753 -12.2753
    -9.7287  -9.7287  -9.6931  -9.6931  -9.5466  -9.5466  -9.5237  -9.5236
    -9.4502  -9.4502  -9.4192  -9.4192  -8.0718  -8.0718  -8.0678  -8.0678
    -5.4799  -5.4799  -5.1944  -5.1944  -2.6355  -2.6355  -2.4421  -2.4421
    -2.1328  -2.1328  -2.0166  -2.0166  -1.9831  -1.9831  -1.8606  -1.8606
    -1.2685  -1.2685  -1.1777  -1.1777  -0.8309  -0.8309  -0.8046  -0.8046
    -0.7895  -0.7895  -0.7555  -0.7555  -0.1353  -0.1353   0.0404   0.0404
     0.2297   0.2297   0.2308   0.2308   0.3386   0.3387   0.4558   0.4558
     0.4795   0.4795   0.5312   0.5312   0.9163   0.9163   0.9683   0.9683
     1.0473   1.0473   1.1482   1.1482   1.3508   1.3508   1.4922   1.4922
     1.4990   1.4990   1.5493   1.5493   1.6509   1.6509   1.7151   1.7151
     1.7338   1.7338   1.8114   1.8114   1.8186   1.8186   1.9317   1.9317
     4.9669   4.9669   5.9261   5.9261   6.1564   6.1564   6.3403   6.3403
     6.5089   6.5089   6.7387   6.7387   6.8171   6.8171   6.9675   6.9675
     7.0794   7.0794   7.6900   7.6900   7.7431   7.7432   7.7739   7.7739

          k = 0.0000 0.2500 0.0000 ( 53887 PWs)   bands (ev):

   -42.6068 -42.6068 -42.6068 -42.6068 -42.5912 -42.5912 -42.5912 -42.5912
   -42.2105 -42.2104 -42.2101 -42.2101 -42.2095 -42.2095 -42.2092 -42.2092
   -42.2011 -42.2011 -42.2009 -42.2009 -42.2004 -42.2004 -42.2000 -42.2000
   -12.4769 -12.4321 -12.4203 -12.4151 -12.3032 -12.2905 -12.2832 -12.2670
    -9.7682  -9.7552  -9.6736  -9.6339  -9.5635  -9.5476  -9.5438  -9.4972
    -9.4792  -9.4294  -9.4197  -9.4105  -8.0750  -8.0695  -8.0685  -8.0673
    -5.6802  -5.2554  -5.2201  -5.1647  -2.6965  -2.6256  -2.5589  -2.3023
    -2.2191  -2.1385  -2.0399  -2.0022  -1.9917  -1.8919  -1.8696  -1.8147
    -1.3203  -1.2136  -1.1893  -1.1379  -0.8374  -0.8258  -0.8189  -0.7903
    -0.7872  -0.7865  -0.7832  -0.7276  -0.1799  -0.0783  -0.0458  -0.0141
     0.1876   0.1967   0.2116   0.2380   0.3334   0.3751   0.4291   0.4308
     0.4581   0.4829   0.5201   0.6704   0.8458   0.9015   0.9318   0.9523
     1.0187   1.0443   1.1807   1.2387   1.3687   1.4011   1.4597   1.4610
     1.4996   1.5236   1.5487   1.5837   1.6256   1.6456   1.6625   1.6634
     1.6913   1.8067   1.8437   1.8465   1.8778   1.8781   1.9316   2.0495
     4.4225   5.5820   5.7425   6.0223   6.0564   6.1205   6.1560   6.1838
     6.2422   6.4372   6.6321   6.7388   6.9227   6.9642   7.0517   7.1589
     7.1874   7.4789   7.5446   7.6924   7.7108   7.7391   7.8235   7.9643

          k = 0.0000 0.2500 0.2500 ( 53843 PWs)   bands (ev):

   -42.6068 -42.6068 -42.6068 -42.6068 -42.5912 -42.5912 -42.5912 -42.5912
   -42.2105 -42.2105 -42.2099 -42.2099 -42.2097 -42.2097 -42.2092 -42.2092
   -42.2012 -42.2012 -42.2007 -42.2007 -42.2005 -42.2005 -42.2000 -42.2000
   -12.4690 -12.4281 -12.4281 -12.4170 -12.3016 -12.2873 -12.2873 -12.2708
    -9.7673  -9.7668  -9.6292  -9.6159  -9.6120  -9.5368  -9.5252  -9.5246
    -9.4691  -9.4373  -9.4188  -9.4186  -8.0748  -8.0688  -8.0687  -8.0682
    -5.6185  -5.2450  -5.2447  -5.2343  -2.6234  -2.6228  -2.5357  -2.3033
    -2.2035  -2.1204  -2.0571  -2.0255  -2.0248  -1.8843  -1.8841  -1.8790
    -1.2539  -1.2538  -1.2472  -1.1292  -0.8380  -0.8265  -0.8265  -0.8110
    -0.8006  -0.7824  -0.7372  -0.7371  -0.0920  -0.0745  -0.0738   0.0695
     0.1864   0.1865   0.2079   0.2242   0.3635   0.3642   0.4152   0.4933
     0.5047   0.5212   0.5216   0.5736   0.8662   0.8722   0.8724   0.9177
     1.0546   1.0552   1.1800   1.2011   1.3388   1.4266   1.4270   1.4702
     1.4702   1.5350   1.5843   1.6060   1.6641   1.6672   1.6673   1.7308
     1.7308   1.7605   1.8094   1.8143   1.8776   1.8778   1.9116   1.9291
     4.5000   5.5022   5.6934   5.6936   6.1649   6.2293   6.2302   6.3006
     6.4987   6.5337   6.6406   6.8139   6.8793   6.8794   7.0522   7.0669
     7.0674   7.4883   7.4887   7.5461   7.6913   7.6931   7.7977   8.0316

          k = 0.0000 0.2500-0.5000 ( 53816 PWs)   bands (ev):

   -42.6068 -42.6068 -42.6068 -42.6068 -42.5912 -42.5912 -42.5912 -42.5912
   -42.2104 -42.2104 -42.2101 -42.2101 -42.2096 -42.2096 -42.2092 -42.2092
   -42.2012 -42.2012 -42.2008 -42.2008 -42.2003 -42.2003 -42.2001 -42.2001
   -12.4493 -12.4481 -12.4221 -12.4206 -12.2960 -12.2958 -12.2794 -12.2792
    -9.7548  -9.7305  -9.6777  -9.6519  -9.5825  -9.5615  -9.5071  -9.4972
    -9.4511  -9.4510  -9.4346  -9.4217  -8.0723  -8.0703  -8.0692  -8.0677
    -5.4508  -5.4344  -5.2515  -5.2314  -2.6064  -2.5561  -2.4541  -2.4221
    -2.1339  -2.1231  -2.0546  -2.0136  -2.0092  -1.9948  -1.9022  -1.8882
    -1.3227  -1.2430  -1.1836  -1.1408  -0.8592  -0.8451  -0.8277  -0.8121
    -0.8037  -0.7899  -0.7197  -0.7047  -0.1131  -0.0539   0.0519   0.0853
     0.1650   0.2041   0.2208   0.2338   0.3344   0.3569   0.4014   0.4352
     0.4753   0.5168   0.5277   0.6259   0.8706   0.8712   0.9440   0.9816
     1.0829   1.1067   1.1534   1.1563   1.2700   1.3782   1.4021   1.4210
     1.4754   1.4943   1.5516   1.6290   1.6307   1.6366   1.6492   1.7297
     1.7366   1.7423   1.7976   1.8071   1.8407   1.8959   1.9372   2.0101
     4.9173   5.1566   5.4618   5.7883   6.1838   6.2783   6.3257   6.5125
     6.5347   6.5643   6.6675   6.6776   6.8234   6.8549   6.9931   7.0826
     7.1225   7.2410   7.5253   7.5578   7.6378   7.6678   7.7868   8.0990

          k = 0.0000 0.2500-0.2500 ( 53843 PWs)   bands (ev):

   -42.6068 -42.6068 -42.6068 -42.6068 -42.5912 -42.5912 -42.5912 -42.5912
   -42.2103 -42.2103 -42.2103 -42.2103 -42.2094 -42.2094 -42.2093 -42.2093
   -42.2010 -42.2010 -42.2010 -42.2010 -42.2002 -42.2002 -42.2001 -42.2001
   -12.4683 -12.4291 -12.4291 -12.4157 -12.3019 -12.2874 -12.2874 -12.2706
    -9.7240  -9.7233  -9.7214  -9.6795  -9.5605  -9.5598  -9.5077  -9.4866
    -9.4834  -9.4260  -9.4258  -9.4241  -8.0729  -8.0697  -8.0697  -8.0671
    -5.6088  -5.2591  -5.2589  -5.2200  -2.6005  -2.6000  -2.5875  -2.3276
    -2.2116  -2.1005  -2.0421  -2.0414  -1.9421  -1.9361  -1.8784  -1.8782
    -1.3524  -1.1870  -1.1624  -1.1624  -0.8413  -0.8413  -0.8262  -0.8145
    -0.8145  -0.7925  -0.7401  -0.6941  -0.0998  -0.0990  -0.0146   0.0030
     0.1951   0.2214   0.2223   0.2434   0.3299   0.4047   0.4049   0.4256
     0.4259   0.4397   0.4664   0.7115   0.8986   0.9309   0.9869   0.9871
     1.0662   1.0666   1.1574   1.1770   1.2387   1.4160   1.4161   1.4444
     1.4788   1.5316   1.5318   1.5565   1.6458   1.6460   1.6548   1.6552
     1.6999   1.7034   1.7831   1.8622   1.8623   1.9045   1.9723   2.1072
     4.6812   5.5185   5.5187   5.8636   6.1150   6.1815   6.2532   6.3142
     6.3152   6.5624   6.6025   6.7794   6.7808   6.7809   7.0955   7.0958
     7.2360   7.4086   7.5587   7.6537   7.6550   7.7863   7.7868   7.9987

          k = 0.0000-0.5000 0.0000 ( 53830 PWs)   bands (ev):

   -42.6068 -42.6068 -42.6068 -42.6068 -42.5912 -42.5912 -42.5912 -42.5912
   -42.2103 -42.2103 -42.2103 -42.2103 -42.2094 -42.2094 -42.2093 -42.2093
   -42.2010 -42.2010 -42.2010 -42.2010 -42.2002 -42.2002 -42.2002 -42.2002
   -12.4547 -12.4547 -12.4163 -12.4163 -12.2984 -12.2984 -12.2753 -12.2753
    -9.7292  -9.7292  -9.6927  -9.6927  -9.5459  -9.5459  -9.5241  -9.5241
    -9.4505  -9.4505  -9.4191  -9.4191  -8.0718  -8.0718  -8.0678  -8.0678
    -5.4801  -5.4801  -5.1942  -5.1942  -2.6359  -2.6359  -2.4418  -2.4418
    -2.1332  -2.1332  -2.0165  -2.0165  -1.9823  -1.9823  -1.8611  -1.8611
    -1.2685  -1.2685  -1.1773  -1.1773  -0.8308  -0.8308  -0.8048  -0.8048
    -0.7896  -0.7896  -0.7558  -0.7558  -0.1358  -0.1358   0.0410   0.0410
     0.2303   0.2303   0.2306   0.2306   0.3390   0.3390   0.4547   0.4547
     0.4793   0.4793   0.5309   0.5309   0.9165   0.9165   0.9682   0.9682
     1.0481   1.0481   1.1488   1.1488   1.3497   1.3497   1.4920   1.4920
     1.4981   1.4981   1.5502   1.5502   1.6510   1.6510   1.7152   1.7152
     1.7341   1.7341   1.8110   1.8110   1.8186   1.8186   1.9319   1.9319
     4.9668   4.9668   5.9266   5.9266   6.1551   6.1551   6.3398   6.3398
     6.5089   6.5089   6.7391   6.7391   6.8184   6.8184   6.9682   6.9682
     7.0796   7.0796   7.6883   7.6883   7.7437   7.7438   7.7747   7.7748

          k = 0.0000-0.5000 0.2500 ( 53816 PWs)   bands (ev):

   -42.6068 -42.6068 -42.6068 -42.6068 -42.5912 -42.5912 -42.5912 -42.5912
   -42.2104 -42.2104 -42.2101 -42.2101 -42.2096 -42.2096 -42.2092 -42.2092
   -42.2012 -42.2012 -42.2008 -42.2008 -42.2003 -42.2003 -42.2001 -42.2001
   -12.4493 -12.4481 -12.4221 -12.4206 -12.2960 -12.2958 -12.2794 -12.2792
    -9.7551  -9.7303  -9.6784  -9.6514  -9.5817  -9.5622  -9.5066  -9.4975
    -9.4514  -9.4512  -9.4345  -9.4216  -8.0723  -8.0703  -8.0692  -8.0677
    -5.4509  -5.4345  -5.2514  -5.2313  -2.6067  -2.5565  -2.4538  -2.4218
    -2.1343  -2.1234  -2.0541  -2.0134  -2.0091  -1.9942  -1.9025  -1.8884
    -1.3227  -1.2428  -1.1835  -1.1406  -0.8593  -0.8453  -0.8277  -0.8120
    -0.8037  -0.7899  -0.7196  -0.7049  -0.1135  -0.0543   0.0523   0.0862
     0.1650   0.2044   0.2198   0.2346   0.3340   0.3571   0.4008   0.4354
     0.4753   0.5163   0.5273   0.6259   0.8707   0.8716   0.9441   0.9815
     1.0825   1.1069   1.1540   1.1568   1.2698   1.3783   1.4014   1.4211
     1.4753   1.4938   1.5516   1.6291   1.6308   1.6366   1.6490   1.7298
     1.7367   1.7426   1.7978   1.8073   1.8406   1.8957   1.9371   2.0102
     4.9173   5.1566   5.4619   5.7884   6.1829   6.2774   6.3259   6.5125
     6.5351   6.5642   6.6675   6.6775   6.8243   6.8557   6.9934   7.0829
     7.1224   7.2408   7.5256   7.5581   7.6371   7.6683   7.7854   8.0988

          k = 0.0000-0.5000-0.5000 ( 53860 PWs)   bands (ev):

   -42.6068 -42.6068 -42.6068 -42.6068 -42.5912 -42.5912 -42.5912 -42.5912
   -42.2104 -42.2104 -42.2099 -42.2099 -42.2098 -42.2098 -42.2091 -42.2091
   -42.2012 -42.2012 -42.2007 -42.2007 -42.2005 -42.2005 -42.2001 -42.2001
   -12.4355 -12.4355 -12.4336 -12.4336 -12.2883 -12.2883 -12.2883 -12.2883
    -9.7538  -9.7538  -9.6170  -9.6170  -9.6137  -9.6137  -9.4849  -9.4849
    -9.4483  -9.4483  -9.4425  -9.4425  -8.0712  -8.0712  -8.0687  -8.0687
    -5.3595  -5.3595  -5.3341  -5.3341  -2.5107  -2.5107  -2.4452  -2.4452
    -2.1281  -2.1281  -2.0769  -2.0769  -1.9639  -1.9639  -1.9621  -1.9621
    -1.3068  -1.3068  -1.1385  -1.1385  -0.8800  -0.8800  -0.8122  -0.8122
    -0.7960  -0.7960  -0.6922  -0.6922   0.0103   0.0103   0.0547   0.0547
     0.1326   0.1326   0.2238   0.2238   0.3396   0.3397   0.4069   0.4069
     0.5363   0.5363   0.5998   0.5998   0.8149   0.8149   0.9727   0.9727
     1.1446   1.1446   1.1568   1.1568   1.2895   1.2895   1.4158   1.4158
     1.4189   1.4189   1.4829   1.4829   1.7015   1.7015   1.7137   1.7137
     1.7905   1.7905   1.7915   1.7915   1.8266   1.8266   2.0435   2.0435
     5.0710   5.0710   5.4315   5.4315   6.2529   6.2529   6.4080   6.4080
     6.5929   6.5929   6.7812   6.7812   6.8512   6.8512   7.0046   7.0046
     7.3151   7.3151   7.3429   7.3429   7.7589   7.7589   7.8371   7.8371

          k = 0.2500 0.0000 0.0000 ( 53887 PWs)   bands (ev):

   -42.6068 -42.6068 -42.6068 -42.6068 -42.5912 -42.5912 -42.5912 -42.5912
   -42.2105 -42.2105 -42.2099 -42.2099 -42.2097 -42.2097 -42.2092 -42.2092
   -42.2011 -42.2011 -42.2007 -42.2007 -42.2005 -42.2005 -42.2000 -42.2000
   -12.4768 -12.4276 -12.4215 -12.4215 -12.2967 -12.2877 -12.2877 -12.2686
    -9.7813  -9.7808  -9.6161  -9.6123  -9.5837  -9.5517  -9.5513  -9.4866
    -9.4834  -9.4608  -9.4070  -9.4069  -8.0752  -8.0685  -8.0684  -8.0683
    -5.6879  -5.3165  -5.1524  -5.1522  -2.7195  -2.7189  -2.4506  -2.2257
    -2.2214  -2.2094  -2.0648  -2.0015  -2.0010  -1.9737  -1.7959  -1.7958
    -1.2769  -1.1885  -1.1884  -1.1274  -0.8380  -0.8380  -0.8344  -0.8091
    -0.7876  -0.7873  -0.7636  -0.7123  -0.2096  -0.2091  -0.0435   0.0559
     0.1124   0.1850   0.1852   0.2071   0.3583   0.3585   0.4552   0.4904
     0.4906   0.4944   0.5656   0.6817   0.7361   0.8884   0.9612   0.9616
     1.0482   1.0487   1.2565   1.2739   1.4121   1.4124   1.4521   1.4526
     1.4657   1.4872   1.5714   1.5716   1.5774   1.6519   1.6523   1.6601
     1.6992   1.7751   1.8098   1.8750   1.8767   1.8768   1.9583   2.0889
     4.4040   5.3998   5.9113   6.0700   6.0710   6.0956   6.1118   6.1118
     6.2173   6.5052   6.6087   6.8697   6.9438   7.1123   7.1125   7.1410
     7.1413   7.4423   7.4925   7.6685   7.6695   7.8180   7.9774   7.9776

          k = 0.2500 0.0000 0.2500 ( 53843 PWs)   bands (ev):

   -42.6068 -42.6068 -42.6068 -42.6068 -42.5912 -42.5912 -42.5912 -42.5912
   -42.2105 -42.2104 -42.2101 -42.2101 -42.2095 -42.2095 -42.2092 -42.2092
   -42.2011 -42.2011 -42.2009 -42.2009 -42.2004 -42.2004 -42.2000 -42.2000
   -12.4686 -12.4294 -12.4253 -12.4210 -12.2970 -12.2907 -12.2855 -12.2718
    -9.7652  -9.7568  -9.6640  -9.6373  -9.5531  -9.5484  -9.5448  -9.5023
    -9.4768  -9.4442  -9.4179  -9.4116  -8.0739  -8.0691  -8.0684  -8.0683
    -5.6191  -5.2954  -5.2433  -5.1796  -2.6812  -2.6320  -2.4950  -2.3025
    -2.1947  -2.1329  -2.0388  -2.0377  -2.0080  -1.9601  -1.8634  -1.8228
    -1.2703  -1.2090  -1.1913  -1.1505  -0.8500  -0.8443  -0.8391  -0.8166
    -0.7736  -0.7716  -0.7648  -0.7280  -0.1784  -0.1085   0.0087   0.0280
     0.1531   0.2033   0.2047   0.2118   0.3412   0.3890   0.4275   0.4474
     0.4869   0.4971   0.5197   0.6179   0.8436   0.9149   0.9537   0.9663
     1.0423   1.0613   1.2076   1.2380   1.3881   1.4034   1.4259   1.4308
     1.4982   1.5331   1.5427   1.5757   1.5961   1.6090   1.6846   1.6898
     1.7081   1.7253   1.8030   1.8734   1.8900   1.8943   1.9021   2.0259
     4.5831   5.4906   5.6248   5.8503   6.0455   6.1927   6.2407   6.2784
     6.2844   6.5769   6.7611   6.7966   6.8770   6.9420   6.9711   7.0914
     7.2373   7.4301   7.5144   7.6620   7.6789   7.8129   7.8415   7.8917

          k = 0.2500 0.0000-0.5000 ( 53816 PWs)   bands (ev):

   -42.6068 -42.6068 -42.6068 -42.6068 -42.5912 -42.5912 -42.5912 -42.5912
   -42.2103 -42.2103 -42.2103 -42.2103 -42.2094 -42.2093 -42.2093 -42.2093
   -42.2010 -42.2010 -42.2010 -42.2010 -42.2002 -42.2002 -42.2002 -42.2002
   -12.4489 -12.4489 -12.4216 -12.4216 -12.2956 -12.2956 -12.2791 -12.2791
    -9.7225  -9.7225  -9.6974  -9.6974  -9.5433  -9.5433  -9.5270  -9.5270
    -9.4465  -9.4465  -9.4246  -9.4246  -8.0712  -8.0712  -8.0683  -8.0683
    -5.4418  -5.4418  -5.2405  -5.2405  -2.5903  -2.5903  -2.4509  -2.4509
    -2.1218  -2.1218  -2.0185  -2.0185  -2.0047  -2.0047  -1.8933  -1.8933
    -1.2461  -1.2461  -1.1847  -1.1847  -0.8556  -0.8556  -0.8306  -0.8306
    -0.7642  -0.7642  -0.7506  -0.7506  -0.0786  -0.0786   0.0435   0.0435
     0.2108   0.2108   0.2155   0.2155   0.3457   0.3457   0.4236   0.4236
     0.4957   0.4957   0.5194   0.5194   0.9392   0.9392   0.9506   0.9506
     1.0838   1.0838   1.1518   1.1518   1.3595   1.3595   1.4521   1.4521
     1.4633   1.4633   1.6091   1.6091   1.6253   1.6253   1.7009   1.7009
     1.7010   1.7010   1.8276   1.8276   1.8612   1.8612   1.9346   1.9346
     5.0469   5.0469   5.6666   5.6666   6.1908   6.1908   6.2981   6.2981
     6.5818   6.5818   6.7840   6.7840   6.8302   6.8302   6.9989   6.9989
     7.1949   7.1949   7.5839   7.5839   7.7564   7.7565   7.9010   7.9011

          k = 0.2500 0.0000-0.2500 ( 53843 PWs)   bands (ev):

   -42.6068 -42.6068 -42.6068 -42.6068 -42.5912 -42.5912 -42.5912 -42.5912
   -42.2105 -42.2104 -42.2101 -42.2101 -42.2095 -42.2095 -42.2092 -42.2092
   -42.2011 -42.2011 -42.2009 -42.2009 -42.2004 -42.2004 -42.2000 -42.2000
   -12.4686 -12.4294 -12.4253 -12.4210 -12.2970 -12.2907 -12.2854 -12.2718
    -9.7652  -9.7568  -9.6640  -9.6373  -9.5531  -9.5484  -9.5448  -9.5023
    -9.4768  -9.4442  -9.4179  -9.4116  -8.0739  -8.0691  -8.0684  -8.0683
    -5.6191  -5.2954  -5.2433  -5.1796  -2.6812  -2.6320  -2.4950  -2.3025
    -2.1947  -2.1329  -2.0388  -2.0377  -2.0080  -1.9601  -1.8634  -1.8228
    -1.2703  -1.2090  -1.1913  -1.1505  -0.8500  -0.8443  -0.8391  -0.8166
    -0.7736  -0.7716  -0.7648  -0.7279  -0.1784  -0.1085   0.0087   0.0280
     0.1531   0.2033   0.2047   0.2118   0.3412   0.3890   0.4275   0.4474
     0.4869   0.4971   0.5197   0.6179   0.8436   0.9149   0.9537   0.9663
     1.0423   1.0613   1.2076   1.2380   1.3881   1.4034   1.4259   1.4308
     1.4982   1.5331   1.5427   1.5757   1.5961   1.6090   1.6847   1.6898
     1.7081   1.7253   1.8030   1.8734   1.8900   1.8943   1.9021   2.0259
     4.5831   5.4906   5.6248   5.8503   6.0455   6.1927   6.2407   6.2784
     6.2843   6.5769   6.7611   6.7966   6.8770   6.9420   6.9711   7.0914
     7.2372   7.4301   7.5144   7.6621   7.6789   7.8128   7.8415   7.8917

          k = 0.2500 0.2500 0.0000 ( 53843 PWs)   bands (ev):

   -42.6068 -42.6068 -42.6068 -42.6068 -42.5912 -42.5912 -42.5912 -42.5912
   -42.2105 -42.2104 -42.2101 -42.2101 -42.2095 -42.2095 -42.2092 -42.2092
   -42.2011 -42.2011 -42.2009 -42.2009 -42.2004 -42.2004 -42.2000 -42.2000
   -12.4686 -12.4294 -12.4253 -12.4209 -12.2970 -12.2907 -12.2854 -12.2718
    -9.7656  -9.7564  -9.6643  -9.6372  -9.5527  -9.5479  -9.5452  -9.5024
    -9.4770  -9.4442  -9.4180  -9.4115  -8.0739  -8.0690  -8.0684  -8.0683
    -5.6191  -5.2953  -5.2435  -5.1794  -2.6817  -2.6316  -2.4951  -2.3025
    -2.1947  -2.1328  -2.0393  -2.0372  -2.0074  -1.9604  -1.8633  -1.8230
    -1.2703  -1.2089  -1.1912  -1.1503  -0.8502  -0.8443  -0.8392  -0.8166
    -0.7737  -0.7716  -0.7648  -0.7282  -0.1788  -0.1078   0.0088   0.0277
     0.1536   0.2033   0.2051   0.2116   0.3409   0.3889   0.4278   0.4477
     0.4869   0.4968   0.5190   0.6177   0.8437   0.9150   0.9537   0.9669
     1.0419   1.0617   1.2079   1.2383   1.3872   1.4029   1.4253   1.4311
     1.4984   1.5332   1.5429   1.5751   1.5963   1.6091   1.6848   1.6901
     1.7081   1.7255   1.8033   1.8734   1.8898   1.8943   1.9021   2.0259
     4.5831   5.4907   5.6247   5.8511   6.0452   6.1925   6.2396   6.2781
     6.2840   6.5774   6.7614   6.7967   6.8774   6.9420   6.9714   7.0923
     7.2371   7.4303   7.5142   7.6617   7.6798   7.8126   7.8401   7.8927

          k = 0.2500 0.2500 0.2500 ( 53898 PWs)   bands (ev):

   -42.6068 -42.6068 -42.6068 -42.6068 -42.5912 -42.5912 -42.5912 -42.5912
   -42.2105 -42.2105 -42.2099 -42.2099 -42.2097 -42.2097 -42.2092 -42.2092
   -42.2012 -42.2012 -42.2007 -42.2007 -42.2005 -42.2005 -42.2000 -42.2000
   -12.4618 -12.4271 -12.4270 -12.4250 -12.2969 -12.2886 -12.2886 -12.2752
    -9.7670  -9.7667  -9.6154  -9.6134  -9.6126  -9.5471  -9.5255  -9.5252
    -9.4668  -9.4453  -9.4181  -9.4180  -8.0738  -8.0692  -8.0686  -8.0686
    -5.5672  -5.2966  -5.2463  -5.2461  -2.6158  -2.6154  -2.4743  -2.2929
    -2.1854  -2.1276  -2.0826  -2.0329  -2.0324  -1.9461  -1.8877  -1.8876
    -1.2488  -1.2487  -1.2186  -1.1398  -0.8472  -0.8472  -0.8261  -0.8217
    -0.8068  -0.7964  -0.7155  -0.7154  -0.0830  -0.0824  -0.0089   0.0823
     0.1794   0.1853   0.1854   0.2005   0.3566   0.3571   0.3920   0.4675
     0.5061   0.5244   0.5247   0.5622   0.8737   0.8907   0.8908   0.9348
     1.0865   1.0869   1.1984   1.2073   1.3426   1.3428   1.3441   1.5115
     1.5115   1.5419   1.5729   1.6184   1.6184   1.6280   1.7213   1.7464
     1.7626   1.7627   1.7700   1.7835   1.9027   1.9129   1.9130   1.9278
     4.5920   5.2914   5.6236   5.6238   6.2241   6.2246   6.2283   6.3922
     6.4172   6.5861   6.7568   6.8890   6.8890   6.9187   6.9550   7.0605
     7.0609   7.4633   7.5807   7.5810   7.7712   7.7882   7.7894   7.9182

          k = 0.2500 0.2500-0.5000 ( 53904 PWs)   bands (ev):

   -42.6068 -42.6068 -42.6068 -42.6068 -42.5912 -42.5912 -42.5912 -42.5912
   -42.2104 -42.2104 -42.2101 -42.2101 -42.2096 -42.2096 -42.2092 -42.2092
   -42.2012 -42.2012 -42.2008 -42.2008 -42.2003 -42.2003 -42.2001 -42.2001
   -12.4447 -12.4435 -12.4253 -12.4239 -12.2944 -12.2944 -12.2826 -12.2824
    -9.7512  -9.7341  -9.6726  -9.6545  -9.5800  -9.5650  -9.5052  -9.4984
    -9.4491  -9.4468  -9.4376  -9.4259  -8.0718  -8.0700  -8.0696  -8.0682
    -5.4241  -5.4075  -5.2834  -5.2642  -2.5679  -2.5149  -2.4576  -2.4154
    -2.1269  -2.1117  -2.0715  -2.0255  -2.0204  -2.0075  -1.9292  -1.9273
    -1.2987  -1.2445  -1.1795  -1.1486  -0.8527  -0.8492  -0.8406  -0.8304
    -0.8162  -0.8034  -0.6943  -0.6934  -0.0589  -0.0196   0.0657   0.0725
     0.1645   0.2067   0.2215   0.2228   0.3262   0.3366   0.3715   0.3970
     0.4812   0.4989   0.5354   0.5692   0.8777   0.8809   0.9545   0.9559
     1.1270   1.1390   1.1523   1.1766   1.2611   1.3351   1.3574   1.4414
     1.4668   1.5104   1.5863   1.5914   1.6294   1.6392   1.6603   1.6854
     1.7558   1.7722   1.8408   1.8439   1.8454   1.9117   1.9726   2.0277
     4.9105   5.1577   5.2803   5.5847   6.1399   6.2161   6.3785   6.5080
     6.5823   6.6065   6.7183   6.7288   6.7969   6.8620   6.9382   7.0866
     7.2908   7.3290   7.5057   7.5696   7.7414   7.8058   7.8369   7.9800

          k = 0.2500 0.2500-0.2500 ( 53898 PWs)   bands (ev):

   -42.6068 -42.6068 -42.6068 -42.6068 -42.5912 -42.5912 -42.5912 -42.5912
   -42.2103 -42.2103 -42.2103 -42.2103 -42.2094 -42.2094 -42.2093 -42.2093
   -42.2010 -42.2010 -42.2010 -42.2010 -42.2002 -42.2002 -42.2001 -42.2001
   -12.4610 -12.4279 -12.4279 -12.4240 -12.2970 -12.2887 -12.2887 -12.2750
    -9.7231  -9.7226  -9.7141  -9.6846  -9.5612  -9.5606  -9.4967  -9.4861
    -9.4838  -9.4374  -9.4257  -9.4256  -8.0721  -8.0695  -8.0694  -8.0680
    -5.5571  -5.2833  -5.2603  -5.2601  -2.5900  -2.5896  -2.5289  -2.3395
    -2.1826  -2.0930  -2.0506  -2.0501  -1.9980  -1.9721  -1.8850  -1.8848
    -1.3064  -1.1960  -1.1666  -1.1666  -0.8552  -0.8321  -0.8321  -0.8244
    -0.8213  -0.8213  -0.7161  -0.6932  -0.1031  -0.1025   0.0316   0.0482
     0.1801   0.2177   0.2351   0.2357   0.3506   0.3659   0.3661   0.4292
     0.4352   0.4771   0.4773   0.6440   0.8997   0.9008   0.9904   0.9905
     1.0740   1.0742   1.2004   1.2445   1.2495   1.4024   1.4027   1.4121
     1.4811   1.5102   1.5105   1.5530   1.5531   1.5775   1.6930   1.7364
     1.7431   1.7445   1.7445   1.8802   1.8848   1.8849   1.9960   2.0982
     4.7874   5.4380   5.4382   5.6024   6.0569   6.1778   6.3305   6.4036
     6.4042   6.6146   6.6784   6.7625   6.7627   6.9484   7.0929   7.0933
     7.2222   7.2835   7.6308   7.6339   7.6345   7.8788   7.8902   7.8904

          k = 0.2500-0.5000 0.0000 ( 53816 PWs)   bands (ev):

   -42.6068 -42.6068 -42.6068 -42.6068 -42.5912 -42.5912 -42.5912 -42.5912
   -42.2103 -42.2103 -42.2103 -42.2103 -42.2094 -42.2094 -42.2093 -42.2093
   -42.2010 -42.2010 -42.2010 -42.2010 -42.2002 -42.2002 -42.2002 -42.2002
   -12.4489 -12.4489 -12.4216 -12.4216 -12.2956 -12.2956 -12.2791 -12.2791
    -9.7228  -9.7228  -9.6971  -9.6971  -9.5428  -9.5428  -9.5272  -9.5272
    -9.4468  -9.4468  -9.4246  -9.4246  -8.0711  -8.0711  -8.0683  -8.0683
    -5.4419  -5.4419  -5.2404  -5.2403  -2.5907  -2.5907  -2.4507  -2.4507
    -2.1220  -2.1220  -2.0179  -2.0179  -2.0046  -2.0046  -1.8936  -1.8936
    -1.2460  -1.2460  -1.1844  -1.1844  -0.8557  -0.8557  -0.8308  -0.8308
    -0.7643  -0.7643  -0.7509  -0.7509  -0.0789  -0.0789   0.0440   0.0440
     0.2116   0.2116   0.2152   0.2152   0.3458   0.3458   0.4230   0.4230
     0.4953   0.4953   0.5191   0.5191   0.9395   0.9395   0.9509   0.9509
     1.0841   1.0841   1.1522   1.1522   1.3586   1.3586   1.4522   1.4523
     1.4623   1.4623   1.6096   1.6096   1.6256   1.6256   1.7012   1.7012
     1.7013   1.7013   1.8272   1.8272   1.8612   1.8612   1.9347   1.9347
     5.0470   5.0470   5.6671   5.6671   6.1897   6.1897   6.2975   6.2975
     6.5817   6.5818   6.7849   6.7849   6.8313   6.8313   6.9992   6.9992
     7.1951   7.1951   7.5845   7.5845   7.7550   7.7550   7.9011   7.9011

          k = 0.2500-0.5000 0.2500 ( 53904 PWs)   bands (ev):

   -42.6068 -42.6068 -42.6068 -42.6068 -42.5912 -42.5912 -42.5912 -42.5912
   -42.2104 -42.2104 -42.2101 -42.2101 -42.2096 -42.2096 -42.2092 -42.2092
   -42.2012 -42.2012 -42.2008 -42.2008 -42.2003 -42.2003 -42.2001 -42.2001
   -12.4447 -12.4435 -12.4253 -12.4239 -12.2944 -12.2944 -12.2826 -12.2824
    -9.7514  -9.7339  -9.6731  -9.6540  -9.5794  -9.5655  -9.5049  -9.4985
    -9.4493  -9.4471  -9.4375  -9.4258  -8.0718  -8.0700  -8.0696  -8.0682
    -5.4242  -5.4075  -5.2834  -5.2641  -2.5682  -2.5152  -2.4575  -2.4152
    -2.1272  -2.1119  -2.0710  -2.0250  -2.0203  -2.0074  -1.9295  -1.9276
    -1.2986  -1.2443  -1.1794  -1.1484  -0.8528  -0.8494  -0.8409  -0.8305
    -0.8161  -0.8034  -0.6943  -0.6935  -0.0592  -0.0199   0.0662   0.0732
     0.1646   0.2071   0.2221   0.2223   0.3257   0.3367   0.3710   0.3969
     0.4809   0.4989   0.5352   0.5693   0.8779   0.8809   0.9546   0.9561
     1.1270   1.1390   1.1526   1.1770   1.2608   1.3346   1.3572   1.4410
     1.4668   1.5104   1.5864   1.5915   1.6296   1.6394   1.6601   1.6855
     1.7559   1.7724   1.8409   1.8438   1.8455   1.9117   1.9725   2.0278
     4.9105   5.1578   5.2804   5.5849   6.1394   6.2160   6.3777   6.5079
     6.5822   6.6065   6.7188   6.7291   6.7978   6.8625   6.9382   7.0867
     7.2909   7.3292   7.5061   7.5701   7.7405   7.8060   7.8360   7.9797

          k = 0.2500-0.5000-0.5000 ( 53840 PWs)   bands (ev):

   -42.6068 -42.6068 -42.6068 -42.6068 -42.5912 -42.5912 -42.5912 -42.5912
   -42.2104 -42.2104 -42.2099 -42.2099 -42.2098 -42.2098 -42.2091 -42.2091
   -42.2012 -42.2012 -42.2007 -42.2007 -42.2005 -42.2005 -42.2001 -42.2001
   -12.4344 -12.4344 -12.4326 -12.4326 -12.2897 -12.2897 -12.2895 -12.2895
    -9.7543  -9.7543  -9.6163  -9.6163  -9.6137  -9.6137  -9.4849  -9.4849
    -9.4486  -9.4486  -9.4413  -9.4413  -8.0712  -8.0712  -8.0689  -8.0689
    -5.3610  -5.3610  -5.3358  -5.3358  -2.4907  -2.4907  -2.4148  -2.4148
    -2.1309  -2.1309  -2.0817  -2.0817  -1.9951  -1.9951  -1.9833  -1.9833
    -1.2956  -1.2956  -1.1453  -1.1453  -0.8677  -0.8677  -0.8354  -0.8354
    -0.8039  -0.8039  -0.6709  -0.6709   0.0324   0.0324   0.0616   0.0616
     0.1609   0.1609   0.2154   0.2154   0.3211   0.3211   0.3646   0.3646
     0.5221   0.5221   0.5384   0.5384   0.8288   0.8288   0.9547   0.9547
     1.1633   1.1633   1.1989   1.1989   1.2331   1.2331   1.3690   1.3690
     1.5112   1.5112   1.5202   1.5202   1.6800   1.6800   1.6851   1.6851
     1.8119   1.8119   1.8349   1.8349   1.8788   1.8789   2.0670   2.0670
     4.9592   4.9593   5.3043   5.3043   6.1531   6.1531   6.4971   6.4971
     6.6823   6.6823   6.7332   6.7332   6.7575   6.7575   6.9789   6.9789
     7.4638   7.4638   7.5384   7.5385   7.7326   7.7326   7.8748   7.8748

          k = 0.2500-0.5000-0.2500 ( 53904 PWs)   bands (ev):

   -42.6068 -42.6068 -42.6068 -42.6068 -42.5912 -42.5912 -42.5912 -42.5912
   -42.2104 -42.2104 -42.2101 -42.2101 -42.2096 -42.2096 -42.2092 -42.2092
   -42.2012 -42.2012 -42.2008 -42.2008 -42.2003 -42.2003 -42.2001 -42.2001
   -12.4447 -12.4435 -12.4253 -12.4239 -12.2944 -12.2944 -12.2826 -12.2824
    -9.7514  -9.7339  -9.6731  -9.6540  -9.5794  -9.5655  -9.5049  -9.4985
    -9.4493  -9.4471  -9.4375  -9.4258  -8.0718  -8.0700  -8.0696  -8.0682
    -5.4242  -5.4075  -5.2834  -5.2641  -2.5682  -2.5152  -2.4575  -2.4152
    -2.1272  -2.1119  -2.0710  -2.0250  -2.0203  -2.0074  -1.9295  -1.9276
    -1.2986  -1.2443  -1.1794  -1.1484  -0.8528  -0.8494  -0.8409  -0.8305
    -0.8161  -0.8034  -0.6943  -0.6935  -0.0592  -0.0199   0.0662   0.0732
     0.1646   0.2071   0.2221   0.2223   0.3257   0.3367   0.3710   0.3969
     0.4809   0.4989   0.5352   0.5693   0.8779   0.8809   0.9546   0.9561
     1.1270   1.1390   1.1526   1.1770   1.2608   1.3346   1.3572   1.4410
     1.4668   1.5104   1.5864   1.5915   1.6296   1.6394   1.6601   1.6855
     1.7559   1.7724   1.8409   1.8438   1.8455   1.9117   1.9725   2.0278
     4.9105   5.1578   5.2804   5.5849   6.1394   6.2160   6.3777   6.5079
     6.5822   6.6065   6.7188   6.7291   6.7978   6.8625   6.9382   7.0867
     7.2909   7.3292   7.5061   7.5701   7.7407   7.8060   7.8361   7.9797

          k = 0.2500-0.2500 0.0000 ( 53843 PWs)   bands (ev):

   -42.6068 -42.6068 -42.6068 -42.6068 -42.5912 -42.5912 -42.5912 -42.5912
   -42.2105 -42.2104 -42.2101 -42.2101 -42.2095 -42.2095 -42.2092 -42.2092
   -42.2011 -42.2011 -42.2009 -42.2009 -42.2004 -42.2004 -42.2000 -42.2000
   -12.4686 -12.4294 -12.4253 -12.4209 -12.2970 -12.2907 -12.2854 -12.2718
    -9.7656  -9.7564  -9.6643  -9.6372  -9.5527  -9.5479  -9.5452  -9.5024
    -9.4770  -9.4442  -9.4180  -9.4115  -8.0739  -8.0690  -8.0684  -8.0683
    -5.6191  -5.2953  -5.2435  -5.1794  -2.6817  -2.6316  -2.4952  -2.3025
    -2.1947  -2.1328  -2.0393  -2.0372  -2.0074  -1.9604  -1.8633  -1.8230
    -1.2703  -1.2089  -1.1912  -1.1503  -0.8502  -0.8443  -0.8392  -0.8166
    -0.7737  -0.7717  -0.7648  -0.7282  -0.1788  -0.1078   0.0088   0.0277
     0.1536   0.2033   0.2051   0.2116   0.3409   0.3889   0.4278   0.4477
     0.4869   0.4968   0.5190   0.6177   0.8437   0.9150   0.9537   0.9669
     1.0419   1.0617   1.2079   1.2383   1.3872   1.4029   1.4253   1.4311
     1.4984   1.5332   1.5429   1.5751   1.5963   1.6091   1.6848   1.6901
     1.7081   1.7255   1.8033   1.8734   1.8898   1.8943   1.9021   2.0259
     4.5831   5.4907   5.6247   5.8511   6.0452   6.1925   6.2396   6.2781
     6.2840   6.5774   6.7614   6.7967   6.8774   6.9420   6.9714   7.0923
     7.2372   7.4303   7.5141   7.6617   7.6798   7.8126   7.8401   7.8926

          k = 0.2500-0.2500 0.2500 ( 53898 PWs)   bands (ev):

   -42.6068 -42.6068 -42.6068 -42.6068 -42.5912 -42.5912 -42.5912 -42.5912
   -42.2103 -42.2103 -42.2103 -42.2103 -42.2094 -42.2094 -42.2093 -42.2093
   -42.2010 -42.2010 -42.2010 -42.2010 -42.2002 -42.2002 -42.2001 -42.2001
   -12.4610 -12.4279 -12.4279 -12.4240 -12.2970 -12.2887 -12.2887 -12.2750
    -9.7231  -9.7226  -9.7141  -9.6846  -9.5612  -9.5606  -9.4967  -9.4861
    -9.4838  -9.4374  -9.4257  -9.4256  -8.0721  -8.0695  -8.0694  -8.0680
    -5.5571  -5.2833  -5.2603  -5.2601  -2.5900  -2.5896  -2.5289  -2.3395
    -2.1826  -2.0930  -2.0506  -2.0501  -1.9980  -1.9721  -1.8850  -1.8848
    -1.3064  -1.1960  -1.1666  -1.1666  -0.8552  -0.8321  -0.8321  -0.8244
    -0.8213  -0.8213  -0.7161  -0.6932  -0.1031  -0.1025   0.0316   0.0482
     0.1801   0.2177   0.2351   0.2357   0.3506   0.3659   0.3661   0.4292
     0.4352   0.4771   0.4773   0.6440   0.8997   0.9008   0.9904   0.9905
     1.0740   1.0742   1.2004   1.2445   1.2495   1.4024   1.4027   1.4121
     1.4811   1.5102   1.5105   1.5530   1.5531   1.5775   1.6930   1.7364
     1.7431   1.7445   1.7445   1.8802   1.8848   1.8849   1.9960   2.0982
     4.7874   5.4380   5.4382   5.6024   6.0569   6.1778   6.3305   6.4036
     6.4042   6.6146   6.6784   6.7625   6.7627   6.9484   7.0929   7.0933
     7.2222   7.2835   7.6308   7.6339   7.6345   7.8788   7.8902   7.8903

          k = 0.2500-0.2500-0.5000 ( 53904 PWs)   bands (ev):

   -42.6068 -42.6068 -42.6068 -42.6068 -42.5912 -42.5912 -42.5912 -42.5912
   -42.2104 -42.2104 -42.2101 -42.2101 -42.2096 -42.2096 -42.2092 -42.2092
   -42.2012 -42.2012 -42.2008 -42.2008 -42.2003 -42.2003 -42.2001 -42.2001
   -12.4447 -12.4435 -12.4253 -12.4239 -12.2944 -12.2944 -12.2826 -12.2824
    -9.7512  -9.7341  -9.6726  -9.6545  -9.5800  -9.5650  -9.5052  -9.4984
    -9.4491  -9.4468  -9.4376  -9.4259  -8.0718  -8.0700  -8.0696  -8.0682
    -5.4241  -5.4075  -5.2834  -5.2642  -2.5679  -2.5149  -2.4576  -2.4154
    -2.1269  -2.1117  -2.0715  -2.0255  -2.0204  -2.0075  -1.9292  -1.9273
    -1.2987  -1.2445  -1.1795  -1.1486  -0.8528  -0.8492  -0.8406  -0.8304
    -0.8162  -0.8034  -0.6943  -0.6934  -0.0589  -0.0196   0.0657   0.0725
     0.1645   0.2067   0.2215   0.2228   0.3262   0.3366   0.3715   0.3970
     0.4812   0.4989   0.5354   0.5692   0.8777   0.8809   0.9545   0.9559
     1.1270   1.1390   1.1523   1.1766   1.2611   1.3351   1.3574   1.4414
     1.4668   1.5104   1.5863   1.5915   1.6294   1.6392   1.6603   1.6854
     1.7558   1.7722   1.8409   1.8439   1.8454   1.9117   1.9726   2.0277
     4.9105   5.1577   5.2803   5.5847   6.1399   6.2161   6.3785   6.5081
     6.5823   6.6065   6.7182   6.7288   6.7969   6.8620   6.9382   7.0866
     7.2908   7.3290   7.5057   7.5696   7.7413   7.8058   7.8368   7.9799

          k = 0.2500-0.2500-0.2500 ( 53898 PWs)   bands (ev):

   -42.6068 -42.6068 -42.6068 -42.6068 -42.5912 -42.5912 -42.5912 -42.5912
   -42.2105 -42.2105 -42.2099 -42.2099 -42.2097 -42.2097 -42.2092 -42.2092
   -42.2012 -42.2012 -42.2007 -42.2007 -42.2005 -42.2005 -42.2000 -42.2000
   -12.4618 -12.4271 -12.4270 -12.4250 -12.2969 -12.2886 -12.2886 -12.2752
    -9.7670  -9.7667  -9.6154  -9.6134  -9.6126  -9.5471  -9.5255  -9.5252
    -9.4668  -9.4453  -9.4181  -9.4180  -8.0738  -8.0692  -8.0686  -8.0686
    -5.5672  -5.2966  -5.2463  -5.2461  -2.6158  -2.6154  -2.4743  -2.2929
    -2.1854  -2.1276  -2.0826  -2.0329  -2.0324  -1.9461  -1.8877  -1.8876
    -1.2487  -1.2487  -1.2186  -1.1398  -0.8472  -0.8472  -0.8261  -0.8217
    -0.8068  -0.7964  -0.7155  -0.7154  -0.0830  -0.0824  -0.0089   0.0823
     0.1794   0.1853   0.1854   0.2005   0.3566   0.3571   0.3920   0.4675
     0.5061   0.5244   0.5247   0.5622   0.8737   0.8907   0.8908   0.9348
     1.0865   1.0869   1.1984   1.2073   1.3426   1.3428   1.3441   1.5114
     1.5115   1.5419   1.5729   1.6184   1.6184   1.6280   1.7213   1.7464
     1.7626   1.7627   1.7700   1.7835   1.9027   1.9129   1.9130   1.9278
     4.5920   5.2914   5.6236   5.6238   6.2241   6.2246   6.2283   6.3922
     6.4172   6.5861   6.7568   6.8890   6.8890   6.9187   6.9550   7.0605
     7.0609   7.4633   7.5807   7.5810   7.7712   7.7882   7.7894   7.9182

          k =-0.5000 0.0000 0.0000 ( 53830 PWs)   bands (ev):

   -42.6068 -42.6068 -42.6068 -42.6068 -42.5912 -42.5912 -42.5912 -42.5912
   -42.2105 -42.2105 -42.2099 -42.2099 -42.2097 -42.2097 -42.2092 -42.2092
   -42.2011 -42.2011 -42.2007 -42.2007 -42.2005 -42.2005 -42.2000 -42.2000
   -12.4535 -12.4535 -12.4203 -12.4203 -12.2890 -12.2890 -12.2815 -12.2815
    -9.7802  -9.7802  -9.6142  -9.6142  -9.5526  -9.5526  -9.5231  -9.5231
    -9.4850  -9.4850  -9.4066  -9.4065  -8.0719  -8.0719  -8.0679  -8.0679
    -5.5102  -5.5102  -5.1531  -5.1531  -2.7204  -2.7204  -2.3163  -2.3163
    -2.1416  -2.1416  -2.1170  -2.1170  -2.0046  -2.0046  -1.7958  -1.7958
    -1.1864  -1.1864  -1.1813  -1.1813  -0.8444  -0.8444  -0.8398  -0.8398
    -0.7810  -0.7810  -0.7311  -0.7311  -0.2371  -0.2371   0.0281   0.0281
     0.1400   0.1400   0.1805   0.1805   0.3973   0.3973   0.5056   0.5056
     0.5308   0.5308   0.5648   0.5648   0.8255   0.8255   0.9853   0.9853
     1.0957   1.0957   1.2656   1.2656   1.3867   1.3867   1.4403   1.4404
     1.4990   1.4990   1.6068   1.6068   1.6249   1.6249   1.6324   1.6325
     1.6636   1.6636   1.7393   1.7393   1.8975   1.8975   2.0129   2.0129
     4.8929   4.8929   5.9902   5.9902   6.0970   6.0971   6.2010   6.2011
     6.5864   6.5864   6.9084   6.9084   6.9689   6.9689   6.9878   6.9878
     7.1249   7.1249   7.4304   7.4304   7.7255   7.7255   7.8485   7.8485

          k =-0.5000 0.0000 0.2500 ( 53816 PWs)   bands (ev):

   -42.6068 -42.6068 -42.6068 -42.6068 -42.5912 -42.5912 -42.5912 -42.5912
   -42.2104 -42.2104 -42.2101 -42.2101 -42.2095 -42.2095 -42.2092 -42.2092
   -42.2011 -42.2011 -42.2009 -42.2009 -42.2004 -42.2004 -42.2000 -42.2000
   -12.4478 -12.4478 -12.4241 -12.4241 -12.2893 -12.2893 -12.2838 -12.2838
    -9.7603  -9.7603  -9.6477  -9.6477  -9.5474  -9.5474  -9.5243  -9.5243
    -9.4673  -9.4673  -9.4144  -9.4144  -8.0712  -8.0712  -8.0683  -8.0683
    -5.4640  -5.4640  -5.2128  -5.2128  -2.6521  -2.6521  -2.3700  -2.3700
    -2.1194  -2.1194  -2.0746  -2.0745  -2.0309  -2.0309  -1.8443  -1.8443
    -1.1988  -1.1988  -1.1942  -1.1942  -0.8536  -0.8536  -0.8525  -0.8525
    -0.7626  -0.7626  -0.7397  -0.7397  -0.1564  -0.1564   0.0712   0.0712
     0.1472   0.1472   0.2026   0.2026   0.3773   0.3773   0.4519   0.4519
     0.5113   0.5113   0.5355   0.5356   0.8868   0.8868   0.9780   0.9780
     1.0817   1.0817   1.2364   1.2364   1.3638   1.3638   1.4689   1.4689
     1.4705   1.4706   1.5390   1.5390   1.5835   1.5835   1.7136   1.7136
     1.7242   1.7242   1.7720   1.7720   1.9033   1.9033   1.9645   1.9645
     5.0008   5.0008   5.7133   5.7133   6.0959   6.0959   6.2983   6.2983
     6.5709   6.5710   6.8903   6.8903   6.9023   6.9023   7.0994   7.0994
     7.1554   7.1554   7.5758   7.5758   7.5855   7.5856   8.0116   8.0121

          k =-0.5000 0.0000-0.5000 ( 53860 PWs)   bands (ev):

   -42.6068 -42.6068 -42.6068 -42.6068 -42.5912 -42.5912 -42.5912 -42.5912
   -42.2103 -42.2103 -42.2103 -42.2103 -42.2094 -42.2094 -42.2093 -42.2093
   -42.2010 -42.2010 -42.2010 -42.2010 -42.2002 -42.2002 -42.2002 -42.2002
   -12.4350 -12.4350 -12.4350 -12.4350 -12.2878 -12.2878 -12.2878 -12.2878
    -9.7089  -9.7089  -9.7089  -9.7089  -9.5351  -9.5351  -9.5351  -9.5351
    -9.4365  -9.4365  -9.4365  -9.4365  -8.0696  -8.0696  -8.0696  -8.0696
    -5.3451  -5.3451  -5.3451  -5.3450  -2.5019  -2.5019  -2.5019  -2.5019
    -2.0835  -2.0835  -2.0835  -2.0835  -1.9583  -1.9583  -1.9582  -1.9582
    -1.2086  -1.2086  -1.2086  -1.2086  -0.8604  -0.8604  -0.8604  -0.8604
    -0.7499  -0.7499  -0.7498  -0.7498   0.0194   0.0194   0.0194   0.0194
     0.1909   0.1910   0.1910   0.1910   0.3680   0.3680   0.3680   0.3680
     0.5118   0.5118   0.5119   0.5119   0.9500   0.9500   0.9500   0.9500
     1.1412   1.1412   1.1412   1.1412   1.3960   1.3960   1.3961   1.3961
     1.4990   1.4990   1.4990   1.4990   1.6326   1.6326   1.6326   1.6326
     1.8072   1.8072   1.8073   1.8073   1.9178   1.9178   1.9178   1.9178
     5.2897   5.2897   5.2897   5.2897   6.2266   6.2266   6.2267   6.2267
     6.7205   6.7205   6.7205   6.7205   6.9874   6.9874   6.9874   6.9874
     7.3501   7.3501   7.3501   7.3501   7.8851   7.8851   7.8852   7.8852

          k =-0.5000 0.2500 0.0000 ( 53816 PWs)   bands (ev):

   -42.6068 -42.6068 -42.6068 -42.6068 -42.5912 -42.5912 -42.5912 -42.5912
   -42.2104 -42.2104 -42.2101 -42.2101 -42.2095 -42.2095 -42.2092 -42.2092
   -42.2011 -42.2011 -42.2009 -42.2009 -42.2004 -42.2004 -42.2000 -42.2000
   -12.4478 -12.4478 -12.4241 -12.4241 -12.2893 -12.2893 -12.2837 -12.2837
    -9.7603  -9.7603  -9.6478  -9.6478  -9.5474  -9.5474  -9.5241  -9.5241
    -9.4674  -9.4674  -9.4144  -9.4144  -8.0712  -8.0712  -8.0683  -8.0683
    -5.4640  -5.4640  -5.2128  -5.2128  -2.6522  -2.6522  -2.3702  -2.3702
    -2.1190  -2.1190  -2.0748  -2.0748  -2.0308  -2.0308  -1.8443  -1.8443
    -1.1987  -1.1987  -1.1941  -1.1941  -0.8538  -0.8538  -0.8526  -0.8526
    -0.7627  -0.7626  -0.7399  -0.7399  -0.1562  -0.1562   0.0712   0.0712
     0.1472   0.1472   0.2028   0.2028   0.3771   0.3771   0.4526   0.4526
     0.5111   0.5111   0.5348   0.5348   0.8870   0.8870   0.9783   0.9783
     1.0817   1.0817   1.2365   1.2365   1.3634   1.3634   1.4690   1.4690
     1.4698   1.4698   1.5391   1.5391   1.5839   1.5839   1.7136   1.7136
     1.7244   1.7244   1.7720   1.7720   1.9033   1.9033   1.9644   1.9644
     5.0009   5.0009   5.7137   5.7137   6.0956   6.0956   6.2975   6.2975
     6.5711   6.5711   6.8909   6.8909   6.9023   6.9023   7.0997   7.0997
     7.1555   7.1555   7.5756   7.5756   7.5858   7.5859   8.0114   8.0116

          k =-0.5000 0.2500 0.2500 ( 53904 PWs)   bands (ev):

   -42.6068 -42.6068 -42.6068 -42.6068 -42.5912 -42.5912 -42.5912 -42.5912
   -42.2105 -42.2105 -42.2099 -42.2099 -42.2097 -42.2097 -42.2092 -42.2092
   -42.2012 -42.2012 -42.2007 -42.2007 -42.2005 -42.2005 -42.2000 -42.2000
   -12.4437 -12.4437 -12.4259 -12.4259 -12.2899 -12.2899 -12.2859 -12.2859
    -9.7667  -9.7667  -9.6140  -9.6139  -9.5776  -9.5776  -9.5258  -9.5258
    -9.4588  -9.4588  -9.4174  -9.4174  -8.0715  -8.0715  -8.0684  -8.0684
    -5.4372  -5.4372  -5.2476  -5.2476  -2.6079  -2.6079  -2.3504  -2.3504
    -2.1376  -2.1376  -2.0700  -2.0700  -2.0400  -2.0400  -1.8917  -1.8916
    -1.2436  -1.2436  -1.1718  -1.1718  -0.8622  -0.8622  -0.8344  -0.8344
    -0.7988  -0.7988  -0.6990  -0.6990  -0.0920  -0.0920   0.1229   0.1229
     0.1303   0.1303   0.1827   0.1827   0.3640   0.3640   0.3914   0.3914
     0.5146   0.5146   0.5350   0.5350   0.9049   0.9049   0.9221   0.9221
     1.1292   1.1292   1.2126   1.2126   1.2850   1.2851   1.4148   1.4148
     1.5200   1.5200   1.5948   1.5948   1.6641   1.6641   1.6814   1.6814
     1.7801   1.7801   1.8435   1.8435   1.8558   1.8558   1.9377   1.9377
     4.8900   4.8900   5.5685   5.5685   6.2078   6.2078   6.3002   6.3002
     6.6364   6.6364   6.7970   6.7970   6.9280   6.9280   7.0000   7.0000
     7.2085   7.2085   7.6922   7.6922   7.7491   7.7491   7.9225   7.9225

          k =-0.5000 0.2500-0.5000 ( 53840 PWs)   bands (ev):

   -42.6068 -42.6068 -42.6068 -42.6068 -42.5912 -42.5912 -42.5912 -42.5912
   -42.2104 -42.2104 -42.2101 -42.2101 -42.2096 -42.2096 -42.2092 -42.2092
   -42.2012 -42.2012 -42.2008 -42.2008 -42.2003 -42.2003 -42.2001 -42.2001
   -12.4343 -12.4343 -12.4331 -12.4331 -12.2894 -12.2894 -12.2892 -12.2892
    -9.7426  -9.7426  -9.6622  -9.6622  -9.5730  -9.5730  -9.5015  -9.5015
    -9.4439  -9.4439  -9.4363  -9.4363  -8.0706  -8.0706  -8.0692  -8.0692
    -5.3564  -5.3564  -5.3387  -5.3387  -2.4947  -2.4947  -2.4392  -2.4392
    -2.1053  -2.1053  -2.0785  -2.0785  -1.9994  -1.9994  -1.9794  -1.9793
    -1.2607  -1.2607  -1.1661  -1.1661  -0.8612  -0.8612  -0.8410  -0.8410
    -0.8145  -0.8144  -0.6819  -0.6819   0.0334   0.0334   0.0508   0.0508
     0.1806   0.1806   0.2141   0.2141   0.3255   0.3255   0.3470   0.3470
     0.4796   0.4796   0.5301   0.5301   0.8775   0.8775   0.9586   0.9586
     1.1521   1.1521   1.1867   1.1867   1.2799   1.2799   1.3644   1.3645
     1.5520   1.5520   1.5800   1.5800   1.6061   1.6062   1.6466   1.6466
     1.8292   1.8292   1.8328   1.8328   1.9049   1.9050   2.0226   2.0226
     5.0143   5.0143   5.2818   5.2818   6.1288   6.1288   6.4320   6.4320
     6.6993   6.6994   6.7076   6.7076   6.8567   6.8567   6.9777   6.9777
     7.4441   7.4442   7.5164   7.5164   7.8794   7.8795   7.9798   7.9799

          k =-0.5000 0.2500-0.2500 ( 53904 PWs)   bands (ev):

   -42.6068 -42.6068 -42.6068 -42.6068 -42.5912 -42.5912 -42.5912 -42.5912
   -42.2103 -42.2103 -42.2103 -42.2103 -42.2094 -42.2094 -42.2093 -42.2093
   -42.2010 -42.2010 -42.2010 -42.2010 -42.2002 -42.2002 -42.2001 -42.2001
   -12.4429 -12.4429 -12.4268 -12.4268 -12.2901 -12.2901 -12.2858 -12.2858
    -9.7220  -9.7220  -9.6982  -9.6982  -9.5617  -9.5617  -9.4850  -9.4850
    -9.4683  -9.4683  -9.4254  -9.4254  -8.0701  -8.0701  -8.0692  -8.0692
    -5.4258  -5.4258  -5.2615  -5.2615  -2.5789  -2.5789  -2.4117  -2.4117
    -2.1021  -2.1021  -2.0595  -2.0595  -2.0461  -2.0461  -1.8915  -1.8915
    -1.2342  -1.2342  -1.1705  -1.1705  -0.8635  -0.8635  -0.8280  -0.8280
    -0.8228  -0.8228  -0.6986  -0.6986  -0.1056  -0.1056   0.1075   0.1075
     0.1533   0.1533   0.2475   0.2475   0.3498   0.3498   0.3841   0.3841
     0.5065   0.5065   0.5108   0.5108   0.8823   0.8823   0.9972   0.9972
     1.0775   1.0776   1.2496   1.2496   1.3327   1.3327   1.3841   1.3841
     1.4559   1.4559   1.5708   1.5708   1.5990   1.5990   1.6452   1.6452
     1.7665   1.7665   1.8162   1.8162   1.9030   1.9030   2.0533   2.0533
     5.1303   5.1303   5.3761   5.3761   6.0782   6.0782   6.4401   6.4401
     6.5098   6.5099   6.7893   6.7893   6.9753   6.9753   7.0864   7.0864
     7.2290   7.2290   7.6024   7.6025   7.6689   7.6689   7.9749   7.9749

          k =-0.5000-0.5000 0.0000 ( 53860 PWs)   bands (ev):

   -42.6068 -42.6068 -42.6068 -42.6068 -42.5912 -42.5912 -42.5912 -42.5912
   -42.2103 -42.2103 -42.2103 -42.2103 -42.2094 -42.2094 -42.2093 -42.2093
   -42.2010 -42.2010 -42.2010 -42.2010 -42.2002 -42.2002 -42.2002 -42.2002
   -12.4350 -12.4350 -12.4350 -12.4350 -12.2878 -12.2878 -12.2878 -12.2878
    -9.7089  -9.7089  -9.7089  -9.7089  -9.5350  -9.5350  -9.5350  -9.5350
    -9.4366  -9.4366  -9.4366  -9.4366  -8.0696  -8.0696  -8.0696  -8.0696
    -5.3450  -5.3450  -5.3450  -5.3450  -2.5021  -2.5021  -2.5021  -2.5021
    -2.0832  -2.0832  -2.0832  -2.0832  -1.9583  -1.9583  -1.9583  -1.9583
    -1.2084  -1.2084  -1.2084  -1.2084  -0.8606  -0.8606  -0.8606  -0.8606
    -0.7501  -0.7501  -0.7501  -0.7501   0.0196   0.0196   0.0196   0.0196
     0.1913   0.1913   0.1913   0.1913   0.3677   0.3677   0.3677   0.3677
     0.5115   0.5115   0.5115   0.5115   0.9504   0.9504   0.9504   0.9505
     1.1413   1.1413   1.1413   1.1413   1.3952   1.3952   1.3952   1.3952
     1.4993   1.4993   1.4993   1.4993   1.6330   1.6330   1.6330   1.6330
     1.8072   1.8072   1.8072   1.8072   1.9178   1.9178   1.9178   1.9178
     5.2900   5.2900   5.2900   5.2900   6.2258   6.2258   6.2258   6.2258
     6.7211   6.7211   6.7211   6.7211   6.9876   6.9876   6.9876   6.9876
     7.3506   7.3506   7.3506   7.3507   7.8845   7.8845   7.8845   7.8846

          k =-0.5000-0.5000 0.2500 ( 53840 PWs)   bands (ev):

   -42.6068 -42.6068 -42.6068 -42.6068 -42.5912 -42.5912 -42.5912 -42.5912
   -42.2104 -42.2104 -42.2101 -42.2101 -42.2096 -42.2096 -42.2092 -42.2092
   -42.2012 -42.2012 -42.2008 -42.2008 -42.2003 -42.2003 -42.2001 -42.2001
   -12.4343 -12.4343 -12.4331 -12.4331 -12.2894 -12.2894 -12.2892 -12.2892
    -9.7427  -9.7427  -9.6622  -9.6622  -9.5729  -9.5729  -9.5014  -9.5014
    -9.4439  -9.4439  -9.4364  -9.4364  -8.0706  -8.0706  -8.0692  -8.0692
    -5.3564  -5.3564  -5.3387  -5.3387  -2.4948  -2.4948  -2.4394  -2.4394
    -2.1051  -2.1051  -2.0784  -2.0784  -1.9995  -1.9995  -1.9794  -1.9794
    -1.2606  -1.2606  -1.1659  -1.1659  -0.8613  -0.8613  -0.8413  -0.8413
    -0.8144  -0.8144  -0.6820  -0.6820   0.0334   0.0335   0.0508   0.0508
     0.1810   0.1810   0.2144   0.2144   0.3251   0.3251   0.3464   0.3464
     0.4797   0.4797   0.5300   0.5300   0.8776   0.8776   0.9588   0.9588
     1.1521   1.1521   1.1869   1.1869   1.2795   1.2795   1.3643   1.3643
     1.5520   1.5520   1.5798   1.5798   1.6063   1.6063   1.6468   1.6468
     1.8292   1.8292   1.8330   1.8330   1.9049   1.9049   2.0225   2.0225
     5.0144   5.0144   5.2819   5.2819   6.1284   6.1284   6.4315   6.4315
     6.6996   6.6996   6.7080   6.7080   6.8569   6.8569   6.9778   6.9778
     7.4445   7.4445   7.5167   7.5167   7.8796   7.8797   7.9793   7.9793

          k =-0.5000-0.5000-0.5000 ( 53584 PWs)   bands (ev):

   -42.6068 -42.6068 -42.6068 -42.6068 -42.5912 -42.5912 -42.5912 -42.5912
   -42.2104 -42.2104 -42.2099 -42.2099 -42.2098 -42.2098 -42.2091 -42.2091
   -42.2012 -42.2012 -42.2007 -42.2007 -42.2005 -42.2005 -42.2001 -42.2001
   -12.4332 -12.4332 -12.4315 -12.4315 -12.2910 -12.2910 -12.2907 -12.2907
    -9.7548  -9.7548  -9.6156  -9.6156  -9.6136  -9.6136  -9.4849  -9.4849
    -9.4488  -9.4488  -9.4402  -9.4402  -8.0712  -8.0712  -8.0691  -8.0691
    -5.3625  -5.3625  -5.3376  -5.3376  -2.4689  -2.4689  -2.3783  -2.3783
    -2.1336  -2.1336  -2.0863  -2.0863  -2.0344  -2.0344  -2.0047  -2.0047
    -1.2844  -1.2844  -1.1518  -1.1518  -0.8553  -0.8553  -0.8536  -0.8536
    -0.8113  -0.8113  -0.6543  -0.6543   0.0616   0.0616   0.0690   0.0690
     0.2032   0.2032   0.2067   0.2067   0.2911   0.2911   0.3276   0.3276
     0.4367   0.4367   0.5404   0.5404   0.8324   0.8324   0.9521   0.9521
     1.1697   1.1698   1.2114   1.2114   1.2354   1.2354   1.3270   1.3270
     1.5596   1.5596   1.5764   1.5764   1.6676   1.6676   1.6689   1.6689
     1.8342   1.8342   1.8423   1.8423   1.9373   1.9373   2.0894   2.0894
     4.8593   4.8593   5.1876   5.1876   6.0934   6.0934   6.5139   6.5139
     6.6875   6.6875   6.7167   6.7167   6.7703   6.7703   6.9532   6.9532
     7.5819   7.5819   7.6468   7.6468   7.8678   7.8678   7.9879   7.9880

     the Fermi energy is     2.8205 ev

!    total energy              =   -1022.94654233 Ry
     estimated scf accuracy    <          6.1E-10 Ry
     smearing contrib. (-TS)   =       0.00000000 Ry
     internal energy E=F+TS    =   -1022.94654233 Ry

     The total energy is F=E-TS. E is the sum of the following terms:
     one-electron contribution =    -321.55867931 Ry
     hartree contribution      =     207.14079527 Ry
     xc contribution           =    -307.75260780 Ry
     ewald contribution        =    -600.77605049 Ry

     convergence has been achieved in  16 iterations

     negative rho (up, down):  5.732E-02 0.000E+00

     Forces acting on atoms (cartesian axes, Ry/au):

     atom    1 type  3   force =    -0.00004016   -0.00000002    0.00000006
     atom    2 type  3   force =    -0.00003996   -0.00000005   -0.00000006
     atom    3 type  3   force =    -0.00003996    0.00000006   -0.00000001
     atom    4 type  3   force =    -0.00004012   -0.00000014   -0.00000008
     atom    5 type  4   force =    -0.00000369   -0.00000481   -0.00001419
     atom    6 type  4   force =    -0.00000091   -0.00000297   -0.00001423
     atom    7 type  4   force =    -0.00000075   -0.00000491   -0.00001208
     atom    8 type  4   force =    -0.00000398   -0.00000294   -0.00001222
     atom    9 type  4   force =     0.00004408   -0.00001401    0.00001229
     atom   10 type  4   force =     0.00004452   -0.00001088    0.00001243
     atom   11 type  4   force =     0.00004464   -0.00001386    0.00000945
     atom   12 type  4   force =     0.00004411   -0.00001085    0.00000983
     atom   13 type  4   force =     0.00004404    0.00001376   -0.00001240
     atom   14 type  4   force =     0.00004477    0.00001137   -0.00001220
     atom   15 type  4   force =     0.00004469    0.00001397   -0.00000958
     atom   16 type  4   force =     0.00004407    0.00001134   -0.00000927
     atom   17 type  4   force =    -0.00000380    0.00000471    0.00001431
     atom   18 type  4   force =    -0.00000073    0.00000285    0.00001414
     atom   19 type  4   force =    -0.00000090    0.00000477    0.00001222
     atom   20 type  4   force =    -0.00000344    0.00000273    0.00001223
     atom   21 type  2   force =    -0.00002382    0.00003193    0.00002566
     atom   22 type  2   force =    -0.00002408    0.00003145    0.00002596
     atom   23 type  2   force =    -0.00002410    0.00003203    0.00002575
     atom   24 type  2   force =    -0.00002364    0.00003129    0.00002536
     atom   25 type  2   force =     0.00000376    0.00000265   -0.00002157
     atom   26 type  2   force =     0.00000357    0.00000247   -0.00002176
     atom   27 type  2   force =     0.00000321    0.00000221   -0.00002211
     atom   28 type  2   force =     0.00000344    0.00000248   -0.00002206
     atom   29 type  2   force =     0.00000359   -0.00000248    0.00002158
     atom   30 type  2   force =     0.00000333   -0.00000256    0.00002152
     atom   31 type  2   force =     0.00000343   -0.00000238    0.00002208
     atom   32 type  2   force =     0.00000352   -0.00000269    0.00002193
     atom   33 type  2   force =    -0.00002425   -0.00003194   -0.00002576
     atom   34 type  2   force =    -0.00002402   -0.00003155   -0.00002572
     atom   35 type  2   force =    -0.00002429   -0.00003198   -0.00002574
     atom   36 type  2   force =    -0.00002400   -0.00003164   -0.00002568
     atom   37 type  2   force =     0.00001789    0.00001889    0.00003754
     atom   38 type  2   force =     0.00001803    0.00001830    0.00003811
     atom   39 type  2   force =     0.00001800    0.00001868    0.00003768
     atom   40 type  2   force =     0.00001795    0.00001871    0.00003730
     atom   41 type  2   force =     0.00001792   -0.00001869   -0.00003764
     atom   42 type  2   force =     0.00001801   -0.00001838   -0.00003783
     atom   43 type  2   force =     0.00001803   -0.00001844   -0.00003786
     atom   44 type  2   force =     0.00001785   -0.00001854   -0.00003757
     atom   45 type  1   force =    -0.00001421    0.00000005   -0.00000002
     atom   46 type  1   force =    -0.00001435   -0.00000004    0.00000004
     atom   47 type  1   force =    -0.00001435   -0.00000002    0.00000006
     atom   48 type  1   force =    -0.00001419   -0.00000000    0.00000000
     atom   49 type  4   force =    -0.00002510    0.00000179    0.00000165
     atom   50 type  4   force =    -0.00002429   -0.00000183    0.00000187
     atom   51 type  4   force =    -0.00002423    0.00000194   -0.00000177
     atom   52 type  4   force =    -0.00002513   -0.00000181   -0.00000162

     Total force =     0.000261     Total SCF correction =     0.000058
     SCF correction compared to forces is large: reduce conv_thr to get better values


     Computing stress (Cartesian axis) and pressure


     negative rho (up, down):  5.732E-02 0.000E+00
          total   stress  (Ry/bohr**3)                   (kbar)     P=       -0.02
   0.00008846   0.00000000   0.00000000           13.01        0.00        0.00
   0.00000000  -0.00004424   0.00007340            0.00       -6.51       10.80
   0.00000000   0.00007340  -0.00004473            0.00       10.80       -6.58


     Writing all to output data dir ./tmp/sp_a.save/ :
     XML data file, charge density, pseudopotentials, collected wavefunctions
 
     init_run     :     11.28s CPU     12.99s WALL (       1 calls)
     electrons    :    340.91s CPU    443.84s WALL (       1 calls)
     forces       :      5.48s CPU     10.06s WALL (       1 calls)
     stress       :      8.48s CPU     14.32s WALL (       1 calls)

     Called by init_run:
     wfcinit      :      8.15s CPU      9.79s WALL (       1 calls)
     potinit      :      0.38s CPU      0.47s WALL (       1 calls)
     hinit0       :      1.96s CPU      1.54s WALL (       1 calls)

     Called by electrons:
     c_bands      :    278.26s CPU    355.71s WALL (      16 calls)
     sum_band     :     51.08s CPU     71.79s WALL (      16 calls)
     v_of_rho     :      3.35s CPU      3.88s WALL (      17 calls)
     newd         :      2.83s CPU      3.56s WALL (      17 calls)
                                        3.56s GPU  (      17 calls)
     mix_rho      :      2.03s CPU      3.14s WALL (      16 calls)

     Called by c_bands:
     init_us_2    :      6.36s CPU      9.59s WALL (    1260 calls)
     cegterg      :    191.62s CPU    236.40s WALL (     576 calls)

     Called by *egterg:
     cdiaghg      :     15.80s CPU     18.98s WALL (    3767 calls)
                                       18.95s GPU  (    3767 calls)
     h_psi        :    128.42s CPU    157.62s WALL (    3803 calls)
                                      157.36s GPU  (    3803 calls)
     s_psi        :      6.59s CPU      7.90s WALL (    3803 calls)
     g_psi        :      0.03s CPU      1.24s WALL (    3191 calls)
                                        1.22s GPU  (    3191 calls)

     Called by h_psi:
     h_psi:calbec :      0.19s CPU     18.24s WALL (    3803 calls)
                                       15.44s GPU  (    3803 calls)
     vloc_psi     :     93.14s CPU    114.06s WALL (    3803 calls)
                                      114.04s GPU  (    3803 calls)
     add_vuspsi   :      4.57s CPU     22.40s WALL (    3803 calls)
                                       20.66s GPU  (    3803 calls)

     General routines
     calbec       :      0.24s CPU      0.45s WALL (    4991 calls)
     fft          :      1.74s CPU      2.32s WALL (     244 calls)
                                        0.31s GPU  (     227 calls)
     ffts         :      0.53s CPU      0.81s WALL (      33 calls)
                                        0.00s GPU  (      16 calls)
     fftw         :      0.74s CPU     76.22s WALL (   40702 calls)
                                       89.73s GPU  (   40702 calls)
     interpolate  :      2.51s CPU      3.86s WALL (      17 calls)
 
     Parallel routines
 
     PWSCF        :   6m12.32s CPU   8m 8.40s WALL

 
   This run was terminated on:   3: 8:44  13Sep2026            

=------------------------------------------------------------------------------=
   JOB DONE.
=------------------------------------------------------------------------------=
Warning: ieee_invalid is signaling
Warning: ieee_divide_by_zero is signaling
Warning: ieee_underflow is signaling
Warning: ieee_inexact is signaling
FORTRAN STOP
